opti conj conp
switch_minimiser bfgs gnorm 0.5
vectors
 4.860438570      0.635344391     -0.255984085
-0.691365660      5.296532013     -0.302306556
 0.226282435      0.327463582      5.088179656
frac
Ti      0.314070367      0.357227673      0.231020540
Ti      0.314071312      0.887242857      0.761037613
Ti      0.941752363      0.028006969      0.487630672
Ti      0.676951675      0.500248143      0.130222203
O       0.525217441      0.203762051      0.914503235
O       0.525213662      0.733778179      0.077559641
O       0.160604745      0.038358619      0.384487106
O       0.160607579      0.568372857      0.607571046
O       0.895298272      0.767351437      0.970762497
O       0.676952642      0.814332142      0.649440217
O       0.941759127      0.248134389      0.970780856
O       0.895293441      0.547227882      0.487640335
species
Ti  2.196
O  -1.098
buck
Ti Ti 31120.1 0.1540 5.25  15
O  O  11782.7 0.2340 30.22 15
Ti O  16957.5 0.1940 12.59 15
lennard 12 6
Ti Ti   1   0 15
O  O    1   0 15
Ti O    1   0 15
