opti conj conp
switch_minimiser bfgs gnorm 0.5
vectors
 5.934824922      0.361855930      0.760906132
-0.375123715      5.689386436     -0.219907776
 0.380346918      0.250631805      3.995312732
frac
Ti      0.871633912      0.732971571      0.189925270
Ti      0.377340824      0.732973549      0.189925270
Ti      0.350457831      0.563015426      0.915774577
Ti      0.831840418      0.875823030      0.747200558
O       0.571809954      0.732972560      0.489751205
O       0.377338846      0.433149591      0.189928236
O       0.677162804      0.238678484      0.384397366
O       0.377339835      0.011256167      0.189924282
O       0.350461682      0.022851859      0.747200558
O       0.675436616      0.179255662      0.590795793
O       0.831837530      0.394444295      0.915770726
O       0.135273049      0.719418265      0.590796755
species
Ti  2.196
O  -1.098
buck
Ti Ti 31120.1 0.1540 5.25  15
O  O  11782.7 0.2340 30.22 15
Ti O  16957.5 0.1940 12.59 15
lennard 12 6
Ti Ti   1   0 15
O  O    1   0 15
Ti O    1   0 15
