opti conj conp
switch_minimiser bfgs gnorm 0.5
vectors
 4.823840497      0.593863154     -0.261267255
-0.729162673      5.240500939     -0.405603489
 0.206400494      0.434588206      5.167120363
frac
Ti      0.303213221      0.473806975      0.786798622
Ti      0.303210370      0.129417985      0.276155092
Ti      0.782916942      0.825362547      0.179976033
Ti      0.631986335      0.153168576      0.330907570
O       0.088478702      0.175621025      0.627655240
O       0.088485354      0.392113614      0.117027865
O       0.042791679      0.902757144      0.117009809
O       0.042786928      0.686268356      0.627664743
O       0.469310393      0.674431010      0.029048212
O       0.933850337      0.976294083      0.852171861
O       0.933847550      0.511757855      0.029044496
O       0.782918800      0.304098255      0.701239395
species
Ti  2.196
O  -1.098
buck
Ti Ti 31120.1 0.1540 5.25  15
O  O  11782.7 0.2340 30.22 15
Ti O  16957.5 0.1940 12.59 15
lennard 12 6
Ti Ti   1   0 15
O  O    1   0 15
Ti O    1   0 15
