opti conj conp
switch_minimiser bfgs gnorm 0.5
vectors
 5.581417810      0.607696704      0.744088441
-3.180880764      7.512875097     -4.299785933
 2.361761646     -2.595805183      4.777135197
frac
Ti      1.075270569      0.437946267      0.472381646
Ti      1.075440538      1.008327653      0.472460357
Ti      0.967155947      0.006387709      0.875522535
Ti      0.161228150      0.929962094      0.092681335
O       0.324080341      0.405033769      0.332187548
O       0.116317063      0.042368891      0.539855004
O       0.453796785      0.022962701      0.627115558
O       1.024162201      0.593304161      0.056711357
O       0.661717485      0.385454187      0.419258740
O       1.084801432      0.595154498      0.757875946
O       0.161227046      0.595154498      0.092683543
O       0.749993835      0.595156705      0.092682439
species
Ti  2.196
O  -1.098
buck
Ti Ti 31120.1 0.1540 5.25  15
O  O  11782.7 0.2340 30.22 15
Ti O  16957.5 0.1940 12.59 15
lennard 12 6
Ti Ti   1   0 15
O  O    1   0 15
Ti O    1   0 15
