opti conj conp
switch_minimiser bfgs gnorm 0.5
vectors
 5.243814950      0.341672459     -0.905808573
-0.521910966      5.883267286     -0.297188296
-1.483654070     -1.151233528      4.644644821
frac
Ti      0.615603479      0.431892590      0.092630986
Ti      0.138566341      0.431887820      0.092623354
Ti      0.895350633      0.773567358      0.013114797
Ti      0.479696943      0.773560001      0.321141481
O       0.813596718      0.241317205      0.379086061
O       0.336558625      0.241307664      0.011572692
O       0.704061499      0.241307664      0.746579394
O       0.227032948      0.241316251      0.379085107
O       0.479698782      0.564055134      0.815348217
O       0.687522408      0.519331184      0.167130438
O       0.895346034      0.564047776      0.507330730
O       0.687523328      0.818284870      0.661336254
species
Ti  2.196
O  -1.098
buck
Ti Ti 31120.1 0.1540 5.25  15
O  O  11782.7 0.2340 30.22 15
Ti O  16957.5 0.1940 12.59 15
lennard 12 6
Ti Ti   1   0 15
O  O    1   0 15
Ti O    1   0 15
