opti conj conp
switch_minimiser bfgs gnorm 0.5
vectors
 4.738004928      0.722083952     -0.176782075
-1.740511552      5.464484217     -1.964464476
 0.899942910     -0.551312030      5.147172330
frac
Ti      0.296401028      0.858803045      0.205792426
Ti      0.811719347      0.343483695      0.205793457
Ti      0.526609457      1.009205058      0.042216572
Ti      0.900047362      0.977653456      0.907819345
O       1.042080305      0.691371666      0.373224836
O       0.128970679      0.176055408      0.038365170
O       0.463829315      1.089164003      0.553680397
O       1.042076182      0.176053347      0.553684520
O       0.644290029      1.089162972      0.038361047
O       0.463832407      0.510916105      0.373224836
O       0.130156336      0.958883467      0.991290239
O       0.526772399      0.462434557      0.042292028
species
Ti  2.196
O  -1.098
buck
Ti Ti 31120.1 0.1540 5.25  15
O  O  11782.7 0.2340 30.22 15
Ti O  16957.5 0.1940 12.59 15
lennard 12 6
Ti Ti   1   0 15
O  O    1   0 15
Ti O    1   0 15
