opti conj conp
switch_minimiser bfgs gnorm 0.5
vectors
 4.561957976     -0.314713681     -1.176895326
-1.119739194      6.278331029     -1.356203422
 0.045345005     -0.890197634      4.961318604
frac
Ti      0.118568921      0.388792865      0.008067977
Ti      0.404200414      0.874675357      0.779574189
Ti      0.660754049      0.556663542      0.368986284
Ti      0.915639740      0.684107407      0.114120983
O       0.345899530      0.291119399      0.305835042
O       0.008768629      0.777000920      0.964220867
O       0.047251062      0.610049358      0.413800615
O       0.453847611      0.610020204      0.880725651
O       0.262376132      0.081448922      0.708232036
O       0.703529629      0.790148190      0.326223957
O       0.703532687      0.285436374      0.326229055
O       0.915640759      0.179390494      0.114130158
species
Ti  2.196
O  -1.098
buck
Ti Ti 31120.1 0.1540 5.25  15
O  O  11782.7 0.2340 30.22 15
Ti O  16957.5 0.1940 12.59 15
lennard 12 6
Ti Ti   1   0 15
O  O    1   0 15
Ti O    1   0 15
