opti conj conp
switch_minimiser bfgs gnorm 0.5
vectors
 4.940604846      0.047064086     -1.437884183
 0.471432919      7.416384236     -1.223453660
 0.851248761     -0.049958771      3.420725319
frac
Ti      0.945731488      0.154965903      0.069886653
Ti      0.945729486      0.655430077      0.069890656
Ti      0.195028220      0.280070435      0.820583915
Ti      0.022281503      0.895755359      0.835185507
O       0.737476502      0.259075879      0.278123622
O       0.403279202      0.676422631      0.612349948
O       0.403278201      0.175959458      0.612340940
O       0.153032101      0.551300081      0.862568022
O       0.153031100      0.050834906      0.862568022
O       0.987716596      0.384203434      0.027899542
O       0.560016485      0.819783045      0.835159178
O       0.834847932      0.822775147      0.309358753
species
Ti  2.196
O  -1.098
buck
Ti Ti 31120.1 0.1540 5.25  15
O  O  11782.7 0.2340 30.22 15
Ti O  16957.5 0.1940 12.59 15
lennard 12 6
Ti Ti   1   0 15
O  O    1   0 15
Ti O    1   0 15
