opti conj conp
switch_minimiser bfgs gnorm 0.5
vectors
 4.803621839      0.571139180     -0.264148146
-0.749818233      5.209631158     -0.462116532
 0.195511991      0.493194800      5.210116534
frac
Ti      0.404781749      0.573854372      0.884055174
Ti      0.404778923      0.232536188      0.377964889
Ti      0.600383127      0.182057070      0.680657444
Ti      0.761606698      0.642451178      0.002819369
O       0.191961948      0.278327251      0.726330822
O       0.191968541      0.492889446      0.220256547
O       0.146682302      0.021970199      0.220238652
O       0.146677593      0.784421304      0.726340240
O       0.911192427      0.953258637      0.830242252
O       0.911193348      0.492864529      0.369849986
O       0.600385890      0.642451178      0.519435714
O       0.761609461      0.182056150      0.220263336
species
Ti  2.196
O  -1.098
buck
Ti Ti 31120.1 0.1540 5.25  15
O  O  11782.7 0.2340 30.22 15
Ti O  16957.5 0.1940 12.59 15
lennard 12 6
Ti Ti   1   0 15
O  O    1   0 15
Ti O    1   0 15
