opti conj conp
switch_minimiser bfgs gnorm 0.5
vectors
 5.030165585      0.555099303     -1.339941097
 0.190649617      6.727138530     -0.525808987
 0.209460033     -0.419525382      3.948690568
frac
Ti      0.158112663      0.763131229      0.804516153
Ti      0.158109561      0.245985683      0.804510982
Ti      0.527206182      0.722776426      0.444536422
Ti      0.862476299      0.191585064      0.673658420
O       0.373300202      0.655545735      0.589337924
O       0.373299167      0.138405360      0.589328615
O       0.114713983      0.526253659      0.847894148
O       0.114712949      0.009111216      0.847894148
O       0.862475303      0.493652437      0.673657424
O       0.862474307      0.722778418      0.142467058
O       0.862474307      0.918702652      0.673661408
O       0.666550074      0.191584068      0.338390295
species
Ti  2.196
O  -1.098
buck
Ti Ti 31120.1 0.1540 5.25  15
O  O  11782.7 0.2340 30.22 15
Ti O  16957.5 0.1940 12.59 15
lennard 12 6
Ti Ti   1   0 15
O  O    1   0 15
Ti O    1   0 15
