opti conj conp
switch_minimiser bfgs gnorm 0.5
vectors
 5.807277839      0.119123752      1.206851926
-0.143646991      5.636672631     -0.006156897
 0.296552802      0.114840310      4.154343131
frac
Ti      0.258479103      0.105515853      0.597020400
Ti      0.803767639      0.105513672      0.597021490
Ti      0.803768729      0.650801117      0.051730773
Ti      0.258481284      0.650803299      0.051730773
O       0.473013062      0.650802208      0.382488622
O       0.258479103      0.320047631      0.051734045
O       0.803768729      0.436269339      0.597019309
O       0.589234770      0.105513672      0.266265823
O       0.258480193      0.981558966      0.051729682
O       0.803768729      0.865335077      0.597019309
O       0.418570203      0.027244642      0.087181056
O       1.054540356      0.274717989      0.867256531
species
Ti  2.196
O  -1.098
buck
Ti Ti 31120.1 0.1540 5.25  15
O  O  11782.7 0.2340 30.22 15
Ti O  16957.5 0.1940 12.59 15
lennard 12 6
Ti Ti   1   0 15
O  O    1   0 15
Ti O    1   0 15
