opti conj conp
switch_minimiser bfgs gnorm 0.5
vectors
 4.410476177      2.552865364     -1.323446143
 1.272677058      9.649438944     -1.279808830
-0.810639635     -0.827938715      3.688851990
frac
Ti      0.699073024      0.000080669      0.268453096
Ti      0.291649004      0.407498985      0.268448207
Ti      0.291648189      0.142636867      0.675866523
Ti      0.699070580      0.550053554      0.675872227
O       0.107522368      0.367874374      0.812314719
O       0.068360583      0.589678166      0.404898032
O       0.514950462      0.589670017      0.131996752
O       0.068367916      0.775291875      0.812317163
O       0.514956166      0.775300024      0.539429735
O       0.107523997      0.182260664      0.404897217
O       0.475776455      0.367880892      0.539414253
O       0.475772380      0.182254145      0.132004900
species
Ti  2.196
O  -1.098
buck
Ti Ti 31120.1 0.1540 5.25  15
O  O  11782.7 0.2340 30.22 15
Ti O  16957.5 0.1940 12.59 15
lennard 12 6
Ti Ti   1   0 15
O  O    1   0 15
Ti O    1   0 15
