opti conj conp
switch_minimiser bfgs gnorm 0.5
vectors
 2.841431955      2.724446912     -4.502007825
 1.433458555      7.117506131     -3.828620625
 1.063682111     -2.547444673      7.495137753
frac
Ti      0.199836108      0.890452715      0.937692779
Ti      1.085300713      0.152578335      0.052225813
Ti      1.085298352      0.742884923      0.052230536
Ti      0.199832566      0.300141405      0.937686876
O       0.839660172      0.275377944      0.297845103
O       0.445468384      0.767646022      0.692071129
O       0.445467204      0.177340615      0.692060503
O       0.839674340      0.865690436      0.297872257
O       1.134833537      1.013277118      0.002727227
O       0.150297381      0.620061701      0.987207894
O       0.150296200      0.029753932      0.987207894
O       1.134822911      0.422968168      0.002701254
species
Ti  2.196
O  -1.098
buck
Ti Ti 31120.1 0.1540 5.25  15
O  O  11782.7 0.2340 30.22 15
Ti O  16957.5 0.1940 12.59 15
lennard 12 6
Ti Ti   1   0 15
O  O    1   0 15
Ti O    1   0 15
