opti conj conp
switch_minimiser bfgs gnorm 0.5
vectors
 6.190071852      1.250073415      0.165253066
-8.960224953     11.901817706    -12.218641618
 5.832810974     -7.335407883      9.172828349
frac
Ti      0.552594424      0.194545766      0.696632597
Ti      0.725388849      0.495797675      0.523891262
Ti      0.595197438      0.539407484      0.094056729
Ti      0.121198505      0.065423720      0.568104959
O       0.251387072      0.021825287      0.049934990
O       0.444792372      0.512069468      0.451529941
O       0.272128774      0.210673460      0.624113905
O       0.121057251      0.539421704      0.568039545
O       0.746139082      0.684675237      0.150094116
O       0.918806472      0.037994694      0.925439759
O       0.078583168      0.668533322      0.222592900
O       0.595082727      0.065450264      0.094082326
species
Ti  2.196
O  -1.098
buck
Ti Ti 31120.1 0.1540 5.25  15
O  O  11782.7 0.2340 30.22 15
Ti O  16957.5 0.1940 12.59 15
lennard 12 6
Ti Ti   1   0 15
O  O    1   0 15
Ti O    1   0 15
