opti conj conp
switch_minimiser bfgs gnorm 0.5
vectors
 7.041748841      0.027521807      1.785557033
-0.033214441      6.565663126      0.029752774
 0.599074112     -0.010796269      3.050624973
frac
Ti      0.275744449      0.140009966      0.576154699
Ti      0.759615300      0.140008031      0.576155667
Ti      0.759616267      0.814248190      0.576153731
Ti      0.275746385      0.623879849      0.092282881
O       0.466114726      0.623878881      0.385786358
O       0.275744449      0.330378307      0.092285784
O       0.759616267      0.433509572      0.576153731
O       0.569245991      0.140008031      0.282654125
O       0.275745417      0.917381390      0.092281913
O       0.949983641      0.140008031      0.869658176
O       0.085376108      0.623878881      0.766522072
O       0.759616267      0.623877913      0.092282881
species
Ti  2.196
O  -1.098
buck
Ti Ti 31120.1 0.1540 5.25  15
O  O  11782.7 0.2340 30.22 15
Ti O  16957.5 0.1940 12.59 15
lennard 12 6
Ti Ti   1   0 15
O  O    1   0 15
Ti O    1   0 15
