opti conj conp
switch_minimiser bfgs gnorm 0.5
vectors
34.756045573     -9.191080321     -4.431792417
-16.203360183      4.247153133     -0.740400545
-1.273270476     -0.584392870     33.830600107
frac
Ti      0.186646828      0.000021538      0.071674799
Ti      0.077867919      0.108798924      0.071673494
Ti      0.077867701      0.038082887      0.180450880
Ti      0.186646175      0.146859838      0.180452403
O       0.028707600      0.098219474      0.216881442
O       0.018251721      0.157439288      0.108104491
O       0.137487597      0.157437112      0.035242062
O       0.018253679      0.206996643      0.216882095
O       0.137489120      0.206998819      0.144023365
O       0.028708035      0.048662119      0.108104273
O       0.127028455      0.098221215      0.144019231
O       0.127027367      0.048660379      0.035244238
species
Ti  2.196
O  -1.098
buck
Ti Ti 31120.1 0.1540 5.25  15
O  O  11782.7 0.2340 30.22 15
Ti O  16957.5 0.1940 12.59 15
lennard 12 6
Ti Ti   1   0 15
O  O    1   0 15
Ti O    1   0 15
