opti conj conp
switch_minimiser bfgs gnorm 0.5
vectors
 7.355084056      1.675996102      1.643944051
 1.569835564      6.842530200     -0.243097171
 0.586649820      0.008622861      2.952537845
frac
Ti      0.404788497      0.205532419      0.845786000
Ti      1.115103265      0.205529578      0.845787421
Ti      1.115104686      0.915842925      0.135469812
Ti      0.404791339      0.915845766      0.135469812
O       0.684249057      0.915844346      0.566328282
O       0.404788497      0.484990138      0.135474074
O       1.115104686      0.636385207      0.845784580
O       0.835644126      0.205529578      0.414931792
O       0.404789918      1.346701395      0.135468391
O       1.394560984      0.205529578      0.276644470
O       0.125330779      0.915844346      0.125242298
O       1.115104686      1.195303485      0.845784580
species
Ti  2.196
O  -1.098
buck
Ti Ti 31120.1 0.1540 5.25  15
O  O  11782.7 0.2340 30.22 15
Ti O  16957.5 0.1940 12.59 15
lennard 12 6
Ti Ti   1   0 15
O  O    1   0 15
Ti O    1   0 15
