opti conj conp
switch_minimiser bfgs gnorm 0.5
vectors
 3.714521943      0.997756805     -3.860882388
 0.488759067      7.379711443     -1.269122559
-0.273431514     -0.968554570      5.356008576
frac
Ti      0.965976026      0.360036008      0.002299342
Ti      0.923822087      0.129876664      0.044455292
Ti      0.714729663      0.234405289      0.253529627
Ti      0.170100080      0.255484269      0.798171268
O       0.923820077      0.632353311      0.044459312
O       0.379188484      0.653430281      0.589099949
O       0.379187479      0.150954638      0.589090904
O       0.714741722      0.736886961      0.253552741
O       0.965985071      0.862514666      0.002321451
O       0.127935086      0.527804587      0.840324203
O       0.127934081      0.025326934      0.840324203
O       0.170103095      0.757964936      0.798176293
species
Ti  2.196
O  -1.098
buck
Ti Ti 31120.1 0.1540 5.25  15
O  O  11782.7 0.2340 30.22 15
Ti O  16957.5 0.1940 12.59 15
lennard 12 6
Ti Ti   1   0 15
O  O    1   0 15
Ti O    1   0 15
