opti conjugate nosymmetry conv
switch_minimiser bfgs gnorm 0.01
pressure 100 GPa
vectors
 9.346157000      0.000000000      0.000000000
 0.000000000      2.688366000      0.000000000
 0.000000000      0.000000000      8.002181000
frac
Mg      0.998498000      0.050446000      0.004642000
Mg      0.208889000      0.050446000      0.504642000
Mg      0.498498000      0.550446000      0.001169000
Mg      0.708889000      0.550446000      0.501169000
Al      0.967160000      0.550446000      0.331043000
Al      0.237877000      0.050446000      0.176066000
Al      0.467160000      0.050446000      0.674768000
Al      0.969510000      0.050446000      0.676067000
Al      0.469510000      0.550446000      0.329744000
Al      0.740227000      0.050446000      0.174768000
Al      0.240227000      0.550446000      0.831043000
Al      0.737877000      0.550446000      0.829744000
O       0.069778000      0.050446000      0.266724000
O       0.872497000      0.550446000      0.128155000
O       0.926583000      0.550446000      0.833785000
O       0.182400000      0.550446000      0.039477000
O       0.280803000      0.550446000      0.333785000
O       0.024987000      0.550446000      0.539477000
O       0.137609000      0.050446000      0.766724000
O       0.334890000      0.550446000      0.628155000
O       0.637609000      0.550446000      0.239087000
O       0.426583000      0.050446000      0.172026000
O       0.682400000      0.050446000      0.966334000
O       0.372497000      0.050446000      0.877656000
O       0.834889000      0.050446000      0.377656000
O       0.524987000      0.050446000      0.466334000
O       0.569778000      0.550446000      0.739087000
O       0.780803000      0.050446000      0.672026000
space
1
species
Mg  2.0
Al  3.0
O  -2.0
lennard 12 6
Mg O   1.50 0.00 0.00 6.0
Al O   1.50 0.00 0.00 6.0
O O    1.50 0.00 0.00 6.0
Mg Mg  1.50 0.00 0.00 6.0
Mg Al  1.50 0.00 0.00 6.0
Al Al  1.50 0.00 0.00 6.0
buck
Mg O 1428.5 0.2945 0.0 0.0 7.0
Al O 1114.9 0.3118 0.0 0.0 7.0
O O  2023.8 0.2674 0.0 0.0 7.0
maxcyc 850
switch rfo 0.010
