opti conjugate nosymmetry conv
switch_minimiser bfgs gnorm 0.01
pressure 100 GPa
vectors
 9.346157000      0.000000000      0.000000000
 0.000000000      2.688366000      0.000000000
 0.000000000      0.000000000      8.002181000
frac
Mg      0.710093000      0.767559000      0.557808000
Mg      0.499702000      0.767559000      0.057808000
Mg      0.210093000      0.267559000      0.554335000
Mg      0.999702000      0.267559000      0.054335000
Al      0.968364000      0.767559000      0.727934000
Al      0.241431000      0.767559000      0.227934000
Al      0.739081000      0.767559000      0.229233000
Al      0.470714000      0.767559000      0.729232000
Al      0.741431000      0.267559000      0.884209000
Al      0.970714000      0.267559000      0.382910000
Al      0.468364000      0.267559000      0.384209000
Al      0.239081000      0.267559000      0.882911000
O       0.927787000      0.767559000      0.225192000
O       0.282008000      0.767559000      0.725192000
O       0.526191000      0.267559000      0.592643000
O       0.026191000      0.767559000      0.519500000
O       0.638813000      0.767559000      0.819890000
O       0.183604000      0.767559000      0.019500000
O       0.570982000      0.767559000      0.319890000
O       0.873701000      0.767559000      0.930822000
O       0.427787000      0.267559000      0.886951000
O       0.782008000      0.267559000      0.386951000
O       0.683604000      0.267559000      0.092643000
O       0.070982000      0.267559000      0.792253000
O       0.836094000      0.267559000      0.681321000
O       0.373701000      0.267559000      0.181321000
O       0.138813000      0.267559000      0.292253000
O       0.336094000      0.767559000      0.430822000
space
1
species
Mg  2.0
Al  3.0
O  -2.0
lennard 12 6
Mg O   1.50 0.00 0.00 6.0
Al O   1.50 0.00 0.00 6.0
O O    1.50 0.00 0.00 6.0
Mg Mg  1.50 0.00 0.00 6.0
Mg Al  1.50 0.00 0.00 6.0
Al Al  1.50 0.00 0.00 6.0
buck
Mg O 1428.5 0.2945 0.0 0.0 7.0
Al O 1114.9 0.3118 0.0 0.0 7.0
O O  2023.8 0.2674 0.0 0.0 7.0
maxcyc 850
switch rfo 0.010
