opti conjugate nosymmetry conv
switch_minimiser bfgs gnorm 0.01
pressure 100 GPa
vectors
 9.346156000      0.000000000      0.000000000
 0.000000000      2.688367000      0.000000000
 0.000000000      0.000000000      8.002181000
frac
Mg      0.171253000      0.692041000      0.966569000
Mg      0.881644000      0.192041000      0.463096000
Mg      0.381644000      0.692041000      0.466569000
Mg      0.671253000      0.192041000      0.963096000
Al      0.910632000      0.192041000      0.791672000
Al      0.912982000      0.692041000      0.136695000
Al      0.142265000      0.692041000      0.637993000
Al      0.639915000      0.692041000      0.636695000
Al      0.412982000      0.192041000      0.792970000
Al      0.410632000      0.692041000      0.137993000
Al      0.139915000      0.192041000      0.292970000
Al      0.642265000      0.192041000      0.291672000
O       0.507645000      0.192041000      0.590082000
O       0.810364000      0.192041000      0.201014000
O       0.545252000      0.692041000      0.839583000
O       0.953558000      0.692041000      0.633953000
O       0.697742000      0.692041000      0.428261000
O       0.007645000      0.692041000      0.339583000
O       0.453558000      0.192041000      0.295712000
O       0.855155000      0.692041000      0.928261000
O       0.197742000      0.192041000      0.501404000
O       0.099338000      0.192041000      0.795712000
O       0.355155000      0.192041000      0.001404000
O       0.742533000      0.192041000      0.701014000
O       0.242533000      0.692041000      0.228651000
O       0.310364000      0.692041000      0.728651000
O       0.599338000      0.692041000      0.133953000
O       0.045252000      0.192041000      0.090082000
space
1
species
Mg  2.0
Al  3.0
O  -2.0
lennard 12 6
Mg O   1.50 0.00 0.00 6.0
Al O   1.50 0.00 0.00 6.0
O O    1.50 0.00 0.00 6.0
Mg Mg  1.50 0.00 0.00 6.0
Mg Al  1.50 0.00 0.00 6.0
Al Al  1.50 0.00 0.00 6.0
buck
Mg O 1428.5 0.2945 0.0 0.0 7.0
Al O 1114.9 0.3118 0.0 0.0 7.0
O O  2023.8 0.2674 0.0 0.0 7.0
maxcyc 850
switch rfo 0.010
