opti conjugate nosymmetry conv
switch_minimiser bfgs gnorm 0.01
pressure 100 GPa
vectors
 2.688367000      0.000000000      0.000000000
 0.000000000      9.346156000      0.000000000
 0.000000000      0.000000000      8.002181000
frac
Mg      0.900326000      0.241794000      0.833200000
Mg      0.900326000      0.031403000      0.333200000
Mg      0.400326000      0.531403000      0.329727000
Mg      0.400326000      0.741794000      0.829727000
Al      0.400326000      0.000065000      0.659601000
Al      0.400326000      0.273132000      0.159601000
Al      0.900326000      0.270782000      0.504625000
Al      0.900326000      0.002415000      0.004625000
Al      0.400326000      0.502415000      0.658303000
Al      0.900326000      0.500065000      0.003326000
Al      0.900326000      0.773132000      0.503326000
Al      0.400326000      0.770782000      0.158303000
O       0.900326000      0.102683000      0.595282000
O       0.900326000      0.405402000      0.206214000
O       0.400326000      0.313709000      0.662343000
O       0.400326000      0.215305000      0.368035000
O       0.400326000      0.057892000      0.868035000
O       0.900326000      0.170514000      0.095282000
O       0.900326000      0.459489000      0.500584000
O       0.400326000      0.670514000      0.567645000
O       0.400326000      0.602683000      0.067645000
O       0.900326000      0.557892000      0.794892000
O       0.400326000      0.367795000      0.956713000
O       0.900326000      0.715305000      0.294892000
O       0.900326000      0.867795000      0.706214000
O       0.400326000      0.959488000      0.162343000
O       0.400326000      0.905402000      0.456713000
O       0.900326000      0.813709000      0.000584000
space
1
species
Mg  2.0
Al  3.0
O  -2.0
lennard 12 6
Mg O   1.50 0.00 0.00 6.0
Al O   1.50 0.00 0.00 6.0
O O    1.50 0.00 0.00 6.0
Mg Mg  1.50 0.00 0.00 6.0
Mg Al  1.50 0.00 0.00 6.0
Al Al  1.50 0.00 0.00 6.0
buck
Mg O 1428.5 0.2945 0.0 0.0 7.0
Al O 1114.9 0.3118 0.0 0.0 7.0
O O  2023.8 0.2674 0.0 0.0 7.0
maxcyc 850
switch rfo 0.010
