opti conjugate nosymmetry conv
switch_minimiser bfgs gnorm 0.01
pressure 100 GPa
vectors
 7.997956000      0.000000000      0.000000000
 0.106115000      9.380281000      0.000000000
 0.000000000      0.000000000      2.681995000
frac
Mg      0.727957000      0.737053000      0.987247000
Mg      0.057451000      0.704549000      0.987247000
Mg      0.564718000      0.987445000      0.487247000
Mg      0.066001000      0.198235000      0.487247000
Al      0.894864000      0.460315000      0.487247000
Al      0.396597000      0.228726000      0.487247000
Al      0.388105000      0.726261000      0.487247000
Al      0.892858000      0.960512000      0.487247000
Al      0.744130000      0.226977000      0.987247000
Al      0.232203000      0.460674000      0.987247000
Al      0.575669000      0.493635000      0.987247000
Al      0.240781000      0.956532000      0.987247000
O       0.943111000      0.327983000      0.987247000
O       0.533832000      0.178198000      0.987247000
O       0.451853000      0.852172000      0.987247000
O       0.905383000      0.778129000      0.487247000
O       0.735596000      0.939551000      0.987247000
O       0.099577000      0.513663000      0.487247000
O       0.817294000      0.549343000      0.987247000
O       0.313986000      0.058452000      0.487247000
O       0.240573000      0.273834000      0.987247000
O       0.681490000      0.369573000      0.487247000
O       0.198243000      0.829598000      0.487247000
O       0.577349000      0.631945000      0.487247000
O       0.037281000      0.019507000      0.987247000
O       0.317310000      0.626129000      0.987247000
O       0.814351000      0.137869000      0.487247000
O       0.406237000      0.420558000      0.487247000
space
1
species
Mg  2.0
Al  3.0
O  -2.0
lennard 12 6
Mg O   1.50 0.00 0.00 6.0
Al O   1.50 0.00 0.00 6.0
O O    1.50 0.00 0.00 6.0
Mg Mg  1.50 0.00 0.00 6.0
Mg Al  1.50 0.00 0.00 6.0
Al Al  1.50 0.00 0.00 6.0
buck
Mg O 1428.5 0.2945 0.0 0.0 7.0
Al O 1114.9 0.3118 0.0 0.0 7.0
O O  2023.8 0.2674 0.0 0.0 7.0
maxcyc 850
switch rfo 0.010
