opti conjugate nosymmetry conv
switch_minimiser bfgs gnorm 0.01
pressure 100 GPa
vectors
 4.572268000      0.000000000      0.000000000
 0.000000000      8.718340000      0.000000000
-1.522506000      0.000000000      5.052445000
frac
Mg      0.342253000      0.709510000      0.402892000
Mg      0.879584000      0.209510000      0.287225000
Mg      0.342253000      0.709510000      0.902892000
Mg      0.879584000      0.209510000      0.787225000
Al      0.847678000      0.536057000      0.029248000
Al      0.847678000      0.882962000      0.529248000
Al      0.374159000      0.036057000      0.160868000
Al      0.374159000      0.382962000      0.160868000
Al      0.847678000      0.536057000      0.529248000
Al      0.847678000      0.882962000      0.029248000
Al      0.374159000      0.036057000      0.660868000
Al      0.374159000      0.382962000      0.660868000
O       0.110918000      0.959510000      0.845058000
O       0.209797000      0.209510000      0.619778000
O       0.573323000      0.850769000      0.710659000
O       0.110918000      0.459510000      0.345058000
O       0.012040000      0.709510000      0.070339000
O       0.110918000      0.459510000      0.845058000
O       0.648514000      0.350769000      0.479457000
O       0.573323000      0.568251000      0.210659000
O       0.648514000      0.068251000      0.479457000
O       0.209797000      0.209510000      0.119778000
O       0.648514000      0.350769000      0.979457000
O       0.573323000      0.568251000      0.710659000
O       0.573323000      0.850769000      0.210659000
O       0.648514000      0.068251000      0.979457000
O       0.110918000      0.959510000      0.345058000
O       0.012040000      0.709510000      0.570339000
space
1
species
Mg  2.0
Al  3.0
O  -2.0
lennard 12 6
Mg O   1.50 0.00 0.00 6.0
Al O   1.50 0.00 0.00 6.0
O O    1.50 0.00 0.00 6.0
Mg Mg  1.50 0.00 0.00 6.0
Mg Al  1.50 0.00 0.00 6.0
Al Al  1.50 0.00 0.00 6.0
buck
Mg O 1428.5 0.2945 0.0 0.0 7.0
Al O 1114.9 0.3118 0.0 0.0 7.0
O O  2023.8 0.2674 0.0 0.0 7.0
maxcyc 850
switch rfo 0.010
