opti conjugate nosymmetry conv
switch_minimiser bfgs gnorm 0.01
pressure 100 GPa
vectors
 8.755641000      0.000000000      0.000000000
 0.000000000      2.638429000      0.000000000
 0.000000000      0.000000000      8.718340000
frac
Mg      0.909445000      0.009188000      0.001987000
Mg      0.140780000      0.009188000      0.501987000
Mg      0.409445000      0.509188000      0.001987000
Mg      0.640779000      0.509188000      0.501987000
Al      0.893492000      0.509188000      0.328534000
Al      0.156732000      0.509188000      0.175439000
Al      0.393492000      0.009188000      0.675439000
Al      0.893492000      0.509188000      0.675439000
Al      0.393492000      0.009188000      0.328534000
Al      0.656732000      0.009188000      0.175439000
Al      0.156732000      0.509188000      0.828534000
Al      0.656732000      0.009188000      0.828534000
O       0.025112000      0.009188000      0.251987000
O       0.793910000      0.509188000      0.143246000
O       0.793910000      0.509188000      0.860728000
O       0.074552000      0.509188000      0.001987000
O       0.256315000      0.509188000      0.360728000
O       0.975673000      0.509188000      0.501987000
O       0.025112000      0.009188000      0.751987000
O       0.256315000      0.509188000      0.643246000
O       0.525112000      0.509188000      0.251987000
O       0.293910000      0.009188000      0.143246000
O       0.574552000      0.009188000      0.001987000
O       0.293910000      0.009188000      0.860728000
O       0.756315000      0.009188000      0.360728000
O       0.475673000      0.009188000      0.501987000
O       0.525112000      0.509188000      0.751987000
O       0.756315000      0.009188000      0.643246000
space
1
species
Mg  2.0
Al  3.0
O  -2.0
lennard 12 6
Mg O   1.50 0.00 0.00 6.0
Al O   1.50 0.00 0.00 6.0
O O    1.50 0.00 0.00 6.0
Mg Mg  1.50 0.00 0.00 6.0
Mg Al  1.50 0.00 0.00 6.0
Al Al  1.50 0.00 0.00 6.0
buck
Mg O 1428.5 0.2945 0.0 0.0 7.0
Al O 1114.9 0.3118 0.0 0.0 7.0
O O  2023.8 0.2674 0.0 0.0 7.0
maxcyc 850
switch rfo 0.010
