opti conjugate nosymmetry conv
switch_minimiser bfgs gnorm 0.01
pressure 100 GPa
vectors
 7.997956000      0.000000000      0.000000000
 0.106115000      9.380281000      0.000000000
 0.000000000      0.000000000      2.681995000
frac
Mg      0.732425000      0.737274000      0.983734000
Mg      0.061919000      0.704770000      0.983734000
Mg      0.569186000      0.987666000      0.483734000
Mg      0.070469000      0.198456000      0.483734000
Al      0.899332000      0.460536000      0.483734000
Al      0.401065000      0.228947000      0.483734000
Al      0.392573000      0.726482000      0.483734000
Al      0.897326000      0.960732000      0.483734000
Al      0.748598000      0.227198000      0.983734000
Al      0.236671000      0.460895000      0.983734000
Al      0.580137000      0.493856000      0.983734000
Al      0.245249000      0.956753000      0.983734000
O       0.947579000      0.328204000      0.983734000
O       0.538300000      0.178419000      0.983734000
O       0.456321000      0.852393000      0.983734000
O       0.909851000      0.778350000      0.483734000
O       0.740064000      0.939772000      0.983734000
O       0.104045000      0.513884000      0.483734000
O       0.821762000      0.549564000      0.983734000
O       0.318454000      0.058673000      0.483734000
O       0.245041000      0.274055000      0.983734000
O       0.685958000      0.369794000      0.483734000
O       0.202711000      0.829819000      0.483734000
O       0.581817000      0.632166000      0.483734000
O       0.041749000      0.019728000      0.983734000
O       0.321778000      0.626350000      0.983734000
O       0.818819000      0.138090000      0.483734000
O       0.410706000      0.420779000      0.483734000
space
1
species
Mg  2.0
Al  3.0
O  -2.0
lennard 12 6
Mg O   1.50 0.00 0.00 6.0
Al O   1.50 0.00 0.00 6.0
O O    1.50 0.00 0.00 6.0
Mg Mg  1.50 0.00 0.00 6.0
Mg Al  1.50 0.00 0.00 6.0
Al Al  1.50 0.00 0.00 6.0
buck
Mg O 1428.5 0.2945 0.0 0.0 7.0
Al O 1114.9 0.3118 0.0 0.0 7.0
O O  2023.8 0.2674 0.0 0.0 7.0
maxcyc 850
switch rfo 0.010
