opti conjugate nosymmetry conv
switch_minimiser bfgs gnorm 0.01
pressure 100 GPa
vectors
 4.572268000      0.000000000      0.000000000
-1.522506000      5.052445000      0.000000000
 0.000000000      0.000000000      8.718340000
frac
Mg      0.470157000      0.440890000      0.614104000
Mg      0.007488000      0.325223000      0.114104000
Mg      0.470157000      0.940890000      0.614104000
Mg      0.007488000      0.825223000      0.114104000
Al      0.975582000      0.067246000      0.787556000
Al      0.502063000      0.698866000      0.287556000
Al      0.975582000      0.567246000      0.787556000
Al      0.502063000      0.198866000      0.287556000
Al      0.975582000      0.067246000      0.440651000
Al      0.502063000      0.198866000      0.940651000
Al      0.975582000      0.567246000      0.440651000
Al      0.502063000      0.698866000      0.940651000
O       0.238822000      0.383056000      0.864104000
O       0.238822000      0.883056000      0.364104000
O       0.238822000      0.883056000      0.864104000
O       0.238822000      0.383056000      0.364104000
O       0.701227000      0.748657000      0.472845000
O       0.701227000      0.748657000      0.755363000
O       0.701227000      0.248657000      0.472845000
O       0.776418000      0.517455000      0.972845000
O       0.776418000      0.017455000      0.255363000
O       0.776418000      0.017455000      0.972845000
O       0.701227000      0.248657000      0.755363000
O       0.776418000      0.517455000      0.255363000
O       0.337701000      0.157776000      0.114104000
O       0.139944000      0.608337000      0.614104000
O       0.337701000      0.657776000      0.114104000
O       0.139944000      0.108337000      0.614104000
space
1
species
Mg  2.0
Al  3.0
O  -2.0
lennard 12 6
Mg O   1.50 0.00 0.00 6.0
Al O   1.50 0.00 0.00 6.0
O O    1.50 0.00 0.00 6.0
Mg Mg  1.50 0.00 0.00 6.0
Mg Al  1.50 0.00 0.00 6.0
Al Al  1.50 0.00 0.00 6.0
buck
Mg O 1428.5 0.2945 0.0 0.0 7.0
Al O 1114.9 0.3118 0.0 0.0 7.0
O O  2023.8 0.2674 0.0 0.0 7.0
maxcyc 850
switch rfo 0.010
