opti conjugate nosymmetry conv
switch_minimiser bfgs gnorm 0.01
pressure 100 GPa
vectors
 2.688367000      0.000000000      0.000000000
 0.000000000      9.346157000      0.000000000
 0.000000000      0.000000000      8.002181000
frac
Mg      0.165534000      0.414011000      0.339032000
Mg      0.165534000      0.203620000      0.839032000
Mg      0.665534000      0.914011000      0.335559000
Mg      0.665534000      0.703620000      0.835559000
Al      0.665534000      0.172282000      0.165433000
Al      0.665534000      0.445349000      0.665433000
Al      0.165534000      0.442999000      0.010457000
Al      0.165534000      0.174632000      0.510456000
Al      0.665534000      0.674632000      0.164134000
Al      0.665534000      0.942999000      0.664134000
Al      0.165534000      0.945349000      0.009158000
Al      0.165534000      0.672282000      0.509158000
O       0.165534000      0.274900000      0.101114000
O       0.165534000      0.577619000      0.712046000
O       0.665534000      0.485926000      0.168175000
O       0.665534000      0.131705000      0.668175000
O       0.665534000      0.387522000      0.873867000
O       0.665534000      0.230109000      0.373867000
O       0.165534000      0.040012000      0.212046000
O       0.165534000      0.342731000      0.601114000
O       0.165534000      0.631705000      0.006416000
O       0.165534000      0.985926000      0.506416000
O       0.665534000      0.842731000      0.073477000
O       0.665534000      0.774900000      0.573477000
O       0.665534000      0.077619000      0.962545000
O       0.165534000      0.730109000      0.300724000
O       0.665534000      0.540012000      0.462545000
O       0.165534000      0.887522000      0.800724000
space
1
species
Mg  2.0
Al  3.0
O  -2.0
lennard 12 6
Mg O   1.50 0.00 0.00 6.0
Al O   1.50 0.00 0.00 6.0
O O    1.50 0.00 0.00 6.0
Mg Mg  1.50 0.00 0.00 6.0
Mg Al  1.50 0.00 0.00 6.0
Al Al  1.50 0.00 0.00 6.0
buck
Mg O 1428.5 0.2945 0.0 0.0 7.0
Al O 1114.9 0.3118 0.0 0.0 7.0
O O  2023.8 0.2674 0.0 0.0 7.0
maxcyc 850
switch rfo 0.010
