opti conjugate nosymmetry conv
switch_minimiser bfgs gnorm 0.01
pressure 100 GPa
vectors
17.436680000      0.000000000      0.000000000
 0.000000000      4.572268000      0.000000000
 0.000000000      0.761253000      2.526223000
frac
Mg      0.376263000      0.251328000      0.001256000
Mg      0.126263000      0.713997000      0.769921000
Mg      0.876263000      0.251328000      0.001256000
Mg      0.626263000      0.713997000      0.769921000
Al      0.212989000      0.219422000      0.517209000
Al      0.289537000      0.745903000      0.253969000
Al      0.539537000      0.219422000      0.517209000
Al      0.962989000      0.745903000      0.253968000
Al      0.712989000      0.219422000      0.517209000
Al      0.789537000      0.745903000      0.253969000
Al      0.039537000      0.219422000      0.517209000
Al      0.462989000      0.745903000      0.253968000
O       0.126263000      0.383784000      0.435028000
O       0.376263000      0.581541000      0.336149000
O       0.196893000      0.945067000      0.154386000
O       0.446893000      0.020258000      0.616791000
O       0.055633000      0.945067000      0.154387000
O       0.251263000      0.482663000      0.885589000
O       0.305633000      0.020258000      0.616791000
O       0.001263000      0.482663000      0.885589000
O       0.626263000      0.383784000      0.435028000
O       0.876263000      0.581541000      0.336149000
O       0.696893000      0.945067000      0.154386000
O       0.946893000      0.020258000      0.616791000
O       0.555633000      0.945067000      0.154387000
O       0.751263000      0.482663000      0.885589000
O       0.805633000      0.020258000      0.616791000
O       0.501263000      0.482663000      0.885589000
space
1
species
Mg  2.0
Al  3.0
O  -2.0
lennard 12 6
Mg O   1.50 0.00 0.00 6.0
Al O   1.50 0.00 0.00 6.0
O O    1.50 0.00 0.00 6.0
Mg Mg  1.50 0.00 0.00 6.0
Mg Al  1.50 0.00 0.00 6.0
Al Al  1.50 0.00 0.00 6.0
buck
Mg O 1428.5 0.2945 0.0 0.0 7.0
Al O 1114.9 0.3118 0.0 0.0 7.0
O O  2023.8 0.2674 0.0 0.0 7.0
maxcyc 850
switch rfo 0.010
