opti conjugate nosymmetry conv
switch_minimiser bfgs gnorm 0.01
pressure 100 GPa
vectors
 9.346157000      0.000000000      0.000000000
 0.000000000      2.688367000      0.000000000
 0.000000000      0.000000000      8.002181000
frac
Mg      0.299563000      0.299392000      0.621108000
Mg      0.089172000      0.299392000      0.121108000
Mg      0.799563000      0.799392000      0.624581000
Mg      0.589172000      0.799392000      0.124581000
Al      0.830901000      0.299392000      0.950982000
Al      0.557834000      0.299392000      0.450982000
Al      0.328551000      0.299392000      0.949683000
Al      0.060184000      0.299392000      0.449683000
Al      0.057834000      0.799392000      0.794707000
Al      0.330901000      0.799392000      0.294707000
Al      0.828551000      0.799392000      0.296005000
Al      0.560184000      0.799392000      0.796005000
O       0.615661000      0.299392000      0.659416000
O       0.871478000      0.299392000      0.453724000
O       0.517257000      0.299392000      0.953724000
O       0.160452000      0.299392000      0.859026000
O       0.463172000      0.299392000      0.248094000
O       0.228283000      0.299392000      0.359026000
O       0.773074000      0.299392000      0.159416000
O       0.925564000      0.299392000      0.748094000
O       0.017257000      0.799392000      0.291965000
O       0.371478000      0.799392000      0.791965000
O       0.115661000      0.799392000      0.586273000
O       0.728283000      0.799392000      0.886663000
O       0.273074000      0.799392000      0.086273000
O       0.660452000      0.799392000      0.386663000
O       0.963172000      0.799392000      0.997595000
O       0.425564000      0.799392000      0.497595000
space
1
species
Mg  2.0
Al  3.0
O  -2.0
lennard 12 6
Mg O   1.50 0.00 0.00 6.0
Al O   1.50 0.00 0.00 6.0
O O    1.50 0.00 0.00 6.0
Mg Mg  1.50 0.00 0.00 6.0
Mg Al  1.50 0.00 0.00 6.0
Al Al  1.50 0.00 0.00 6.0
buck
Mg O 1428.5 0.2945 0.0 0.0 7.0
Al O 1114.9 0.3118 0.0 0.0 7.0
O O  2023.8 0.2674 0.0 0.0 7.0
maxcyc 850
switch rfo 0.010
