opti conjugate nosymmetry conv
switch_minimiser bfgs gnorm 0.01
pressure 100 GPa
vectors
 8.755641000      0.000000000      0.000000000
 0.000000000      2.638429000      0.000000000
 0.000000000      0.000000000      8.718340000
frac
Mg      0.995219000      0.611590000      0.004875000
Mg      0.226553000      0.611590000      0.504875000
Mg      0.495219000      0.111590000      0.004875000
Mg      0.726553000      0.111590000      0.504875000
Al      0.979266000      0.111590000      0.331422000
Al      0.242506000      0.111590000      0.178327000
Al      0.479266000      0.611590000      0.678327000
Al      0.979266000      0.111590000      0.678327000
Al      0.479266000      0.611590000      0.331422000
Al      0.742506000      0.611590000      0.178327000
Al      0.242506000      0.111590000      0.831422000
Al      0.742506000      0.611590000      0.831422000
O       0.110886000      0.611590000      0.254875000
O       0.879684000      0.111590000      0.146134000
O       0.879684000      0.111590000      0.863616000
O       0.160326000      0.111590000      0.004875000
O       0.342089000      0.111590000      0.363616000
O       0.061447000      0.111590000      0.504875000
O       0.110886000      0.611590000      0.754875000
O       0.342089000      0.111590000      0.646134000
O       0.610886000      0.111590000      0.254875000
O       0.379684000      0.611590000      0.146134000
O       0.660326000      0.611590000      0.004875000
O       0.379684000      0.611590000      0.863616000
O       0.842089000      0.611590000      0.363616000
O       0.561447000      0.611590000      0.504875000
O       0.610886000      0.111590000      0.754875000
O       0.842089000      0.611590000      0.646134000
space
1
species
Mg  2.0
Al  3.0
O  -2.0
lennard 12 6
Mg O   1.50 0.00 0.00 6.0
Al O   1.50 0.00 0.00 6.0
O O    1.50 0.00 0.00 6.0
Mg Mg  1.50 0.00 0.00 6.0
Mg Al  1.50 0.00 0.00 6.0
Al Al  1.50 0.00 0.00 6.0
buck
Mg O 1428.5 0.2945 0.0 0.0 7.0
Al O 1114.9 0.3118 0.0 0.0 7.0
O O  2023.8 0.2674 0.0 0.0 7.0
maxcyc 850
switch rfo 0.010
