opti conjugate nosymmetry conv
switch_minimiser bfgs gnorm 0.01
pressure 100 GPa
vectors
 9.346156000      0.000000000      0.000000000
 0.000000000      2.688367000      0.000000000
 0.000000000      0.000000000      8.002181000
frac
Mg      0.707641000      0.373478000      0.562539000
Mg      0.497250000      0.373478000      0.062539000
Mg      0.207641000      0.873478000      0.559066000
Mg      0.997250000      0.873478000      0.059066000
Al      0.965912000      0.373478000      0.732665000
Al      0.238979000      0.373478000      0.232665000
Al      0.736629000      0.373478000      0.233963000
Al      0.468262000      0.373478000      0.733963000
Al      0.738979000      0.873478000      0.888940000
Al      0.968262000      0.873478000      0.387642000
Al      0.465912000      0.873478000      0.388940000
Al      0.236629000      0.873478000      0.887642000
O       0.925336000      0.373478000      0.229923000
O       0.279556000      0.373478000      0.729923000
O       0.523739000      0.873478000      0.597374000
O       0.023739000      0.373478000      0.524231000
O       0.636361000      0.373478000      0.824621000
O       0.181152000      0.373478000      0.024231000
O       0.568530000      0.373478000      0.324621000
O       0.871249000      0.373478000      0.935553000
O       0.425335000      0.873478000      0.891682000
O       0.779556000      0.873478000      0.391682000
O       0.681152000      0.873478000      0.097374000
O       0.068530000      0.873478000      0.796984000
O       0.833642000      0.873478000      0.686052000
O       0.371249000      0.873478000      0.186052000
O       0.136361000      0.873478000      0.296984000
O       0.333642000      0.373478000      0.435553000
space
1
species
Mg  2.0
Al  3.0
O  -2.0
lennard 12 6
Mg O   1.50 0.00 0.00 6.0
Al O   1.50 0.00 0.00 6.0
O O    1.50 0.00 0.00 6.0
Mg Mg  1.50 0.00 0.00 6.0
Mg Al  1.50 0.00 0.00 6.0
Al Al  1.50 0.00 0.00 6.0
buck
Mg O 1428.5 0.2945 0.0 0.0 7.0
Al O 1114.9 0.3118 0.0 0.0 7.0
O O  2023.8 0.2674 0.0 0.0 7.0
maxcyc 850
switch rfo 0.010
