opti conjugate nosymmetry conv
switch_minimiser bfgs gnorm 0.01
pressure 100 GPa
vectors
 9.346157000      0.000000000      0.000000000
 0.000000000      2.688366000      0.000000000
 0.000000000      0.000000000      8.002181000
frac
Mg      0.708788000      0.096618000      0.559693000
Mg      0.498397000      0.096618000      0.059693000
Mg      0.208788000      0.596618000      0.556220000
Mg      0.998397000      0.596618000      0.056220000
Al      0.967059000      0.096618000      0.729819000
Al      0.240126000      0.096618000      0.229819000
Al      0.737776000      0.096618000      0.231118000
Al      0.469409000      0.096618000      0.731117000
Al      0.740126000      0.596618000      0.886094000
Al      0.969409000      0.596618000      0.384796000
Al      0.467059000      0.596618000      0.386094000
Al      0.237776000      0.596618000      0.884795000
O       0.926482000      0.096618000      0.227077000
O       0.280703000      0.096618000      0.727077000
O       0.524886000      0.596618000      0.594528000
O       0.024886000      0.096618000      0.521385000
O       0.637508000      0.096618000      0.821775000
O       0.182299000      0.096618000      0.021385000
O       0.569677000      0.096618000      0.321775000
O       0.872397000      0.096618000      0.932707000
O       0.426482000      0.596618000      0.888836000
O       0.780703000      0.596618000      0.388836000
O       0.682299000      0.596618000      0.094528000
O       0.069677000      0.596618000      0.794138000
O       0.834789000      0.596618000      0.683206000
O       0.372396000      0.596618000      0.183206000
O       0.137508000      0.596618000      0.294138000
O       0.334789000      0.096618000      0.432707000
space
1
species
Mg  2.0
Al  3.0
O  -2.0
lennard 12 6
Mg O   1.50 0.00 0.00 6.0
Al O   1.50 0.00 0.00 6.0
O O    1.50 0.00 0.00 6.0
Mg Mg  1.50 0.00 0.00 6.0
Mg Al  1.50 0.00 0.00 6.0
Al Al  1.50 0.00 0.00 6.0
buck
Mg O 1428.5 0.2945 0.0 0.0 7.0
Al O 1114.9 0.3118 0.0 0.0 7.0
O O  2023.8 0.2674 0.0 0.0 7.0
maxcyc 850
switch rfo 0.010
