opti conjugate nosymmetry conv
switch_minimiser bfgs gnorm 0.01
pressure 100 GPa
vectors
 5.266345000      0.000000000      0.000000000
 1.320174000      4.370503000      0.000000000
 0.037348000      0.019997000      8.745472000
frac
Mg      0.870861000      0.006574000      0.001760000
Mg      0.742484000      0.504845000      0.163223000
Mg      0.373559000      0.998671000      0.994065000
Mg      0.985982000      0.542160000      0.492527000
Al      0.620290000      0.024126000      0.670655000
Al      0.247503000      0.510481000      0.822267000
Al      0.244333000      0.505413000      0.168338000
Al      0.106275000      0.040190000      0.321343000
Al      0.118807000      0.036331000      0.666946000
Al      0.485589000      0.533587000      0.485238000
Al      0.614791000      0.013010000      0.312573000
Al      0.748548000      0.502789000      0.820410000
O       0.173336000      0.852078000      0.497476000
O       0.068087000      0.231467000      0.847627000
O       0.205529000      0.669890000      0.994665000
O       0.299844000      0.311771000      0.363386000
O       0.429604000      0.770526000      0.739700000
O       0.791415000      0.308084000      0.631956000
O       0.417785000      0.762074000      0.259739000
O       0.080165000      0.215533000      0.139555000
O       0.704201000      0.687857000      0.978925000
O       0.780407000      0.293700000      0.371007000
O       0.643734000      0.838893000      0.495693000
O       0.565636000      0.235530000      0.850958000
O       0.937118000      0.773049000      0.254337000
O       0.554603000      0.207743000      0.137195000
O       0.935552000      0.767476000      0.736191000
O       0.309839000      0.315335000      0.628992000
space
1
species
Mg  2.0
Al  3.0
O  -2.0
lennard 12 6
Mg O   1.50 0.00 0.00 6.0
Al O   1.50 0.00 0.00 6.0
O O    1.50 0.00 0.00 6.0
Mg Mg  1.50 0.00 0.00 6.0
Mg Al  1.50 0.00 0.00 6.0
Al Al  1.50 0.00 0.00 6.0
buck
Mg O 1428.5 0.2945 0.0 0.0 7.0
Al O 1114.9 0.3118 0.0 0.0 7.0
O O  2023.8 0.2674 0.0 0.0 7.0
maxcyc 850
switch rfo 0.010
