opti conjugate nosymmetry conv
switch_minimiser bfgs gnorm 0.01
pressure 100 GPa
vectors
 7.997956000      0.000000000      0.000000000
 0.106115000      9.380281000      0.000000000
 0.000000000      0.000000000      2.681995000
frac
Mg      0.730917000      0.735609000      0.430848000
Mg      0.060411000      0.703105000      0.430848000
Mg      0.567678000      0.986001000      0.930848000
Mg      0.068961000      0.196791000      0.930848000
Al      0.897824000      0.458871000      0.930848000
Al      0.399557000      0.227282000      0.930848000
Al      0.391065000      0.724817000      0.930848000
Al      0.895818000      0.959067000      0.930848000
Al      0.747090000      0.225533000      0.430848000
Al      0.235163000      0.459230000      0.430848000
Al      0.578629000      0.492191000      0.430848000
Al      0.243741000      0.955088000      0.430848000
O       0.946071000      0.326539000      0.430848000
O       0.536792000      0.176754000      0.430848000
O       0.454813000      0.850728000      0.430848000
O       0.908343000      0.776685000      0.930848000
O       0.738556000      0.938107000      0.430848000
O       0.102537000      0.512219000      0.930848000
O       0.820254000      0.547899000      0.430848000
O       0.316946000      0.057008000      0.930848000
O       0.243533000      0.272390000      0.430848000
O       0.684450000      0.368129000      0.930848000
O       0.201203000      0.828154000      0.930848000
O       0.580309000      0.630501000      0.930848000
O       0.040240000      0.018063000      0.430848000
O       0.320270000      0.624685000      0.430848000
O       0.817311000      0.136425000      0.930848000
O       0.409197000      0.419114000      0.930848000
space
1
species
Mg  2.0
Al  3.0
O  -2.0
lennard 12 6
Mg O   1.50 0.00 0.00 6.0
Al O   1.50 0.00 0.00 6.0
O O    1.50 0.00 0.00 6.0
Mg Mg  1.50 0.00 0.00 6.0
Mg Al  1.50 0.00 0.00 6.0
Al Al  1.50 0.00 0.00 6.0
buck
Mg O 1428.5 0.2945 0.0 0.0 7.0
Al O 1114.9 0.3118 0.0 0.0 7.0
O O  2023.8 0.2674 0.0 0.0 7.0
maxcyc 850
switch rfo 0.010
