opti conjugate nosymmetry conv
switch_minimiser bfgs gnorm 0.01
pressure 100 GPa
vectors
 8.755641000      0.000000000      0.000000000
 0.000000000      2.638429000      0.000000000
 0.000000000      0.000000000      8.718340000
frac
Mg      0.995787000      0.994267000      0.000485000
Mg      0.227122000      0.994267000      0.500485000
Mg      0.495787000      0.494267000      0.000485000
Mg      0.727121000      0.494267000      0.500485000
Al      0.979834000      0.494267000      0.327032000
Al      0.243074000      0.494267000      0.173937000
Al      0.479834000      0.994267000      0.673937000
Al      0.979834000      0.494267000      0.673937000
Al      0.479834000      0.994267000      0.327032000
Al      0.743074000      0.994267000      0.173937000
Al      0.243074000      0.494267000      0.827032000
Al      0.743074000      0.994267000      0.827032000
O       0.111454000      0.994267000      0.250485000
O       0.880252000      0.494267000      0.141744000
O       0.880252000      0.494267000      0.859226000
O       0.160894000      0.494267000      0.000485000
O       0.342656000      0.494267000      0.359226000
O       0.062015000      0.494267000      0.500485000
O       0.111454000      0.994267000      0.750485000
O       0.342656000      0.494267000      0.641744000
O       0.611454000      0.494267000      0.250485000
O       0.380252000      0.994267000      0.141744000
O       0.660894000      0.994267000      0.000485000
O       0.380252000      0.994267000      0.859226000
O       0.842657000      0.994267000      0.359226000
O       0.562015000      0.994267000      0.500485000
O       0.611454000      0.494267000      0.750485000
O       0.842657000      0.994267000      0.641744000
space
1
species
Mg  2.0
Al  3.0
O  -2.0
lennard 12 6
Mg O   1.50 0.00 0.00 6.0
Al O   1.50 0.00 0.00 6.0
O O    1.50 0.00 0.00 6.0
Mg Mg  1.50 0.00 0.00 6.0
Mg Al  1.50 0.00 0.00 6.0
Al Al  1.50 0.00 0.00 6.0
buck
Mg O 1428.5 0.2945 0.0 0.0 7.0
Al O 1114.9 0.3118 0.0 0.0 7.0
O O  2023.8 0.2674 0.0 0.0 7.0
maxcyc 850
switch rfo 0.010
