opti conj conp
switch_minimiser bfgs gnorm 0.5
vectors
 4.935659000      0.005429000      0.000000000
-0.004975000      4.522186000      0.000000000
 0.000000000     -0.000000000      5.379247000
frac
Ti     -0.000000000      0.500000000      0.959232000
Ti      0.500000000     -0.000000000      0.784279000
Ti     -0.000000000     -0.000000000      0.459232000
Ti      0.500000000      0.500000000      0.284279000
O       0.332547000      0.774031000      0.507857000
O       0.667453000      0.225969000      0.507857000
O       0.167452000      0.225969000      0.735655000
O       0.832548000      0.774031000      0.735655000
O       0.667452000      0.274031000      0.007857000
O       0.332548000      0.725969000      0.007857000
O       0.832548000      0.725968000      0.235654000
O       0.167452000      0.274032000      0.235654000
species
Ti  2.196
O  -1.098
buck
Ti Ti 31120.1 0.1540 5.25  15
O  O  11782.7 0.2340 30.22 15
Ti O  16957.5 0.1940 12.59 15
lennard 12 6
Ti Ti   1   0 15
O  O    1   0 15
Ti O    1   0 15
