opti conj conp
switch_minimiser bfgs gnorm 0.5
vectors
 3.343959000      0.029844000     -0.456448000
-0.086349000      5.784234000     -0.253590000
-2.580681000      2.526127000      6.216234000
frac
Ti      0.500000000      0.500000000      0.839094000
Ti      0.535501000      0.473982000      0.374582000
Ti      0.000000000     -0.000000000      0.339094000
Ti      0.035501000      0.973982000      0.874582000
O       0.173947000      0.649873000      0.513040000
O       0.933187000      0.394231000      0.272273000
O       0.861550000      0.324108000      0.700639000
O       0.102187000      0.579889000      0.941275000
O       0.433187000      0.894231000      0.772273000
O       0.361550000      0.824108000      0.200639000
O       0.673947000      0.149873000      0.013040000
O       0.602187000      0.079889000      0.441275000
species
Ti  2.196
O  -1.098
buck
Ti Ti 31120.1 0.1540 5.25  15
O  O  11782.7 0.2340 30.22 15
Ti O  16957.5 0.1940 12.59 15
lennard 12 6
Ti Ti   1   0 15
O  O    1   0 15
Ti O    1   0 15
