opti conj conp
switch_minimiser bfgs gnorm 0.5
vectors
 6.218988000     -0.648460000      1.492177000
-1.536090000      6.696278000     -2.975904000
 0.195011000     -0.399575000      3.722125000
frac
Ti      0.280172000      0.813721000      0.209350000
Ti      0.479395000      0.405012000      0.701030000
Ti      0.075435000      0.407093000      0.405091000
Ti      0.876212000      0.815803000      0.913412000
O       0.395562000      0.107374000      0.445308000
O       0.960044000      0.113440000      0.169133000
O       0.953812000      0.805814000      0.364623000
O       0.199304000      0.750352000      0.686415000
O       0.803122000      0.490985000      0.625139000
O       0.552484000      0.729830000      0.989302000
O       0.156303000      0.470463000      0.928026000
O       0.401795000      0.415001000      0.249818000
species
Ti  2.196
O  -1.098
buck
Ti Ti 31120.1 0.1540 5.25  15
O  O  11782.7 0.2340 30.22 15
Ti O  16957.5 0.1940 12.59 15
lennard 12 6
Ti Ti   1   0 15
O  O    1   0 15
Ti O    1   0 15
