opti conj conp
switch_minimiser bfgs gnorm 0.5
vectors
 3.770465000     -0.015814000      0.026174000
 0.010670000      3.705781000      0.695986000
-0.061917000      1.940448000     10.099349000
frac
Ti      0.595929000      0.589831000      0.640994000
Ti      0.095934000      0.589769000      0.140997000
Ti      0.595939000      0.839797000      0.890996000
Ti      0.095936000      0.839736000      0.390994000
O       0.095941000      0.047819000      0.182945000
O       0.595940000      0.047875000      0.682946000
O       0.095937000      0.381693000      0.349047000
O       0.595931000      0.381755000      0.849043000
O       0.595935000      0.797784000      0.432945000
O       0.095938000      0.797840000      0.932947000
O       0.595934000      0.631721000      0.099049000
O       0.095933000      0.631782000      0.599045000
species
Ti  2.196
O  -1.098
buck
Ti Ti 31120.1 0.1540 5.25  15
O  O  11782.7 0.2340 30.22 15
Ti O  16957.5 0.1940 12.59 15
lennard 12 6
Ti Ti   1   0 15
O  O    1   0 15
Ti O    1   0 15
