opti conj conp
switch_minimiser bfgs gnorm 0.5
vectors
 9.359467000      1.482059000     -0.036773000
 0.497148000      2.966979000     -0.040799000
 0.008068000      0.060434000      4.492561000
frac
Ti      0.876696000      0.965400000      0.758045000
Ti      0.126698000      0.215401000      0.258043000
Ti      0.376698000      0.465394000      0.758047000
Ti      0.626696000      0.715398000      0.258053000
O       0.778336000      0.563760000      0.561341000
O       0.225054000      0.617033000      0.061329000
O       0.278341000      0.063749000      0.561331000
O       0.725054000      0.117042000      0.061351000
O       0.475057000      0.867039000      0.954761000
O       0.528338000      0.313756000      0.454760000
O       0.975056000      0.367040000      0.954757000
O       0.028336000      0.813757000      0.454758000
species
Ti  2.196
O  -1.098
buck
Ti Ti 31120.1 0.1540 5.25  15
O  O  11782.7 0.2340 30.22 15
Ti O  16957.5 0.1940 12.59 15
lennard 12 6
Ti Ti   1   0 15
O  O    1   0 15
Ti O    1   0 15
