opti conj conp
switch_minimiser bfgs gnorm 0.5
vectors
 6.059358000      0.026349000     -2.370086000
-0.020881000      3.568161000     -0.013748000
-1.260178000      0.014635000      5.709077000
frac
Ti      0.677653000      0.929385000      0.599207000
Ti      0.166493000      0.429374000      0.076873000
Ti      0.666491000      0.429378000      0.076871000
Ti      0.177657000      0.929381000      0.599208000
O       0.330118000      0.084627000      0.404131000
O       0.514031000      0.584619000      0.271953000
O       0.770355000      0.423002000      0.784619000
O       0.073789000      0.923004000      0.891473000
O       0.014029000      0.584624000      0.271950000
O       0.830119000      0.084624000      0.404131000
O       0.573776000      0.923002000      0.891464000
O       0.270352000      0.423006000      0.784614000
species
Ti  2.196
O  -1.098
buck
Ti Ti 31120.1 0.1540 5.25  15
O  O  11782.7 0.2340 30.22 15
Ti O  16957.5 0.1940 12.59 15
lennard 12 6
Ti Ti   1   0 15
O  O    1   0 15
Ti O    1   0 15
