opti conj conp
switch_minimiser bfgs gnorm 0.5
vectors
 4.474774000      0.000005000     -2.097177000
-0.000000000      4.856262000      0.000004000
-2.493951000      0.000001000      6.323698000
frac
Ti      0.789601000      0.000000000      0.508561000
Ti      0.231372000      0.499999000      0.508558000
Ti      0.729877000      0.999998000      0.948836000
Ti      0.171649000      0.499999000      0.948836000
O       0.264804000     -0.000000000      0.140404000
O       0.696444000      0.500000000      0.316991000
O       0.941390000      1.000000000      0.316991000
O       0.019859000      0.500001000      0.140406000
O       0.680045000      0.250000000      0.678119000
O       0.680044000      0.750000000      0.678118000
O       0.281204000      0.750000000      0.779278000
O       0.281204000      0.249999000      0.779278000
species
Ti  2.196
O  -1.098
buck
Ti Ti 31120.1 0.1540 5.25  15
O  O  11782.7 0.2340 30.22 15
Ti O  16957.5 0.1940 12.59 15
lennard 12 6
Ti Ti   1   0 15
O  O    1   0 15
Ti O    1   0 15
