opti conj conp
switch_minimiser bfgs gnorm 0.5
vectors
 6.236255577      0.000000000      0.000000000
 0.000000000      3.683488177      0.000000000
 0.000000000      0.000000000      8.856937479
frac
Ti      0.718768903      0.353835607      0.726618293
Ti      0.281231097      0.646164393      0.226618293
Ti      0.281231097      0.353835607      0.773381707
Ti      0.718768903      0.646164393      0.273381707
O       0.467725359      0.187013226      0.515835595
O       0.532274641      0.812986774      0.015835595
O       0.532274641      0.187013226      0.984164405
O       0.467725359      0.812986774      0.484164405
O       0.853399845      0.500000000     -0.000000000
O       0.146600155      0.500000000      0.500000000
O       0.397482748      0.000000000      0.000000000
O       0.602517252     -0.000000000      0.500000000
species
Ti  2.196
O  -1.098
buck
Ti Ti 31120.1 0.1540 5.25  15
O  O  11782.7 0.2340 30.22 15
Ti O  16957.5 0.1940 12.59 15
lennard 12 6
Ti Ti   1   0 15
O  O    1   0 15
Ti O    1   0 15
