opti conj conp
switch_minimiser bfgs gnorm 0.5
vectors
 4.722259910      0.000000000     -3.381271273
 0.000000000      6.540036095      0.000000000
 0.000000000      0.000000000      5.082004975
frac
Ti      0.169264022      0.754226139      0.794239063
Ti      0.830735978      0.254226139      0.205760937
Ti      0.721893365      0.666883224      0.165027767
Ti      0.278106635      0.166883224      0.834972233
O       0.509760489      0.941912988      0.262873930
O       0.490239511      0.441912988      0.737126070
O       0.379347337      0.245001135      0.619141022
O       0.620652663      0.745001135      0.380858978
O       0.597292762      0.967894876      0.761487657
O       0.402707238      0.467894876      0.238512343
O       0.350583243      0.937438818      0.023118352
O       0.649416757      0.437438818      0.976881648
species
Ti  2.196
O  -1.098
buck
Ti Ti 31120.1 0.1540 5.25  15
O  O  11782.7 0.2340 30.22 15
Ti O  16957.5 0.1940 12.59 15
lennard 12 6
Ti Ti   1   0 15
O  O    1   0 15
Ti O    1   0 15
