opti conj conp
switch_minimiser bfgs gnorm 0.5
vectors
 3.122963782      0.000000000     -0.115929443
 0.000000000      6.753685383      0.000000000
 0.000000000      0.000000000      5.866216846
frac
Ti     -0.000000000     -0.000000000      0.500000000
Ti     -0.000000000      0.500000000     -0.000000000
Ti     -0.000000000     -0.000000000     -0.000000000
Ti     -0.000000000      0.500000000      0.500000000
O       0.823077100      0.630157481      0.342138235
O       0.176922900      0.130157481      0.157861765
O       0.176922900      0.369842519      0.657861765
O       0.823077100      0.869842519      0.842138235
O       0.635305662      0.761700716      0.065095253
O       0.364694338      0.261700716      0.434904747
O       0.364694338      0.238299284      0.934904747
O       0.635305662      0.738299284      0.565095253
species
Ti  2.196
O  -1.098
buck
Ti Ti 31120.1 0.1540 5.25  15
O  O  11782.7 0.2340 30.22 15
Ti O  16957.5 0.1940 12.59 15
lennard 12 6
Ti Ti   1   0 15
O  O    1   0 15
Ti O    1   0 15
