opti conj conp
switch_minimiser bfgs gnorm 0.5
vectors
 8.527242894      0.000000000      0.044292086
 0.000000000      6.695478144      0.000000000
 0.000000000      0.000000000      3.849768373
frac
Ti      0.640717319     -0.000000000      0.888151653
Ti      0.140717319      0.500000000      0.888151653
Ti      0.811605012      0.000000000      0.332910549
Ti      0.311605012      0.500000000      0.332910549
O       0.849775060      0.249802569      0.391663368
O       0.849775060      0.750197431      0.391663368
O       0.349775060      0.749802569      0.391663368
O       0.349775060      0.250197431      0.391663368
O       0.457995426     -0.000000000      0.724433309
O       0.957995426      0.500000000      0.724433309
O       0.464209803      0.000000000      0.491451047
O       0.964209803      0.500000000      0.491451047
species
Ti  2.196
O  -1.098
buck
Ti Ti 31120.1 0.1540 5.25  15
O  O  11782.7 0.2340 30.22 15
Ti O  16957.5 0.1940 12.59 15
lennard 12 6
Ti Ti   1   0 15
O  O    1   0 15
Ti O    1   0 15
