opti conj conp
switch_minimiser bfgs gnorm 0.5
vectors
 5.819064807      0.000000000      0.351304059
 0.000000000      3.852882127      0.000000000
 0.000000000      0.000000000      6.255465453
frac
Ti      0.251401885      0.581285823      0.240425356
Ti      0.251401885      0.418714177      0.740425356
Ti      0.751401885      0.081285823      0.240425356
Ti      0.751401885      0.918714177      0.740425356
O       0.858993800      0.502987927      0.073795262
O       0.858993800      0.497012073      0.573795262
O       0.358993800      0.002987927      0.073795262
O       0.358993800      0.997012073      0.573795262
O       0.666988162      0.380613753      0.437467370
O       0.666988162      0.619386247      0.937467370
O       0.166988162      0.880613753      0.437467370
O       0.166988162      0.119386247      0.937467370
species
Ti  2.196
O  -1.098
buck
Ti Ti 31120.1 0.1540 5.25  15
O  O  11782.7 0.2340 30.22 15
Ti O  16957.5 0.1940 12.59 15
lennard 12 6
Ti Ti   1   0 15
O  O    1   0 15
Ti O    1   0 15
