opti conj conp
switch_minimiser bfgs gnorm 0.5
vectors
 3.404597305      0.000000000      0.000000000
 0.000000000      5.684493484      0.000000000
 0.000000000      0.000000000      8.513190974
frac
Ti     -0.000000000      0.836187099      0.026718435
Ti      0.500000000      0.163812901      0.526718435
Ti     -0.000000000      0.363023439      0.420546032
Ti      0.500000000      0.636976561      0.920546032
O       0.350628349      0.368877233      0.770393814
O       0.149371651      0.631122767      0.270393814
O       0.850628349      0.631122767      0.270393814
O       0.649371651      0.368877233      0.770393814
O      -0.000000000      0.950496526      0.272612844
O       0.500000000      0.049503474      0.772612844
O      -0.000000000      0.836829236      0.734896647
O       0.500000000      0.163170764      0.234896647
species
Ti  2.196
O  -1.098
buck
Ti Ti 31120.1 0.1540 5.25  15
O  O  11782.7 0.2340 30.22 15
Ti O  16957.5 0.1940 12.59 15
lennard 12 6
Ti Ti   1   0 15
O  O    1   0 15
Ti O    1   0 15
