opti conj conp
switch_minimiser bfgs gnorm 0.5
vectors
 9.541851641      0.000000000      2.779717694
 0.000000000      5.411035371      0.000000000
 0.000000000      0.000000000      4.743748050
frac
Ti     -0.000000000      0.500000000      0.500000000
Ti     -0.000000000     -0.000000000     -0.000000000
Ti     -0.000000000      0.500000000     -0.000000000
Ti      0.500000000     -0.000000000      0.500000000
O       0.358789122      0.822513633      0.800876452
O       0.641210878      0.822513633      0.199123548
O       0.641210878      0.177486367      0.199123548
O       0.358789122      0.177486367      0.800876452
O       0.699378958      0.500000000      0.121021897
O       0.300621042      0.500000000      0.878978103
O      -0.000000000      0.836998389      0.500000000
O      -0.000000000      0.163001611      0.500000000
species
Ti  2.196
O  -1.098
buck
Ti Ti 31120.1 0.1540 5.25  15
O  O  11782.7 0.2340 30.22 15
Ti O  16957.5 0.1940 12.59 15
lennard 12 6
Ti Ti   1   0 15
O  O    1   0 15
Ti O    1   0 15
