opti conj conp
switch_minimiser bfgs gnorm 0.5
vectors
 6.981547006      0.000000000      0.000000000
 0.000000000      5.250767859      0.000000000
 0.000000000      0.000000000      3.193730015
frac
Ti      0.250000000      0.250000000      0.451530507
Ti      0.750000000      0.250000000      0.548469493
Ti      0.750000000      0.750000000      0.451530507
Ti      0.250000000      0.750000000      0.548469493
O      -0.000000000      0.307342777     -0.000000000
O      -0.000000000      0.692657223     -0.000000000
O       0.500000000      0.807342777      0.000000000
O       0.500000000      0.192657223      0.000000000
O       0.786425922      0.000000000      0.000000000
O       0.213574078     -0.000000000     -0.000000000
O       0.286425922      0.500000000     -0.000000000
O       0.713574078      0.500000000     -0.000000000
species
Ti  2.196
O  -1.098
buck
Ti Ti 31120.1 0.1540 5.25  15
O  O  11782.7 0.2340 30.22 15
Ti O  16957.5 0.1940 12.59 15
lennard 12 6
Ti Ti   1   0 15
O  O    1   0 15
Ti O    1   0 15
