opti conj conp
switch_minimiser bfgs gnorm 0.5
vectors
 5.580791829      0.000000000      0.000000000
 0.000000000      7.306463623      0.000000000
 0.000000000      0.000000000      5.139087780
frac
Ti      0.769864589      0.633914677      0.441729085
Ti      0.230135411      0.366085323      0.441729085
Ti      0.769864589      0.366085323      0.441729085
Ti      0.230135411      0.633914677      0.441729085
O       0.500000000      0.576457458      0.674212728
O       0.500000000      0.423542542      0.674212728
O      -0.000000000      0.839940987      0.634817659
O      -0.000000000      0.160059013      0.634817659
O       0.590825014      0.186211301      0.298697193
O       0.409174986      0.813788699      0.298697193
O       0.590825014      0.813788699      0.298697193
O       0.409174986      0.186211301      0.298697193
species
Ti  2.196
O  -1.098
buck
Ti Ti 31120.1 0.1540 5.25  15
O  O  11782.7 0.2340 30.22 15
Ti O  16957.5 0.1940 12.59 15
lennard 12 6
Ti Ti   1   0 15
O  O    1   0 15
Ti O    1   0 15
