opti conj conp
switch_minimiser bfgs gnorm 0.5
vectors
 4.522274567      0.000000000      0.507345044
 0.000000000      6.346012032      0.000000000
 0.000000000      0.000000000      4.431435899
frac
Ti     -0.000000000     -0.000000000      0.500000000
Ti     -0.000000000      0.500000000      0.500000000
Ti     -0.000000000     -0.000000000     -0.000000000
Ti     -0.000000000      0.500000000     -0.000000000
O       0.500000000     -0.000000000     -0.000000000
O       0.500000000      0.500000000      0.000000000
O       0.500000000     -0.000000000      0.500000000
O       0.500000000      0.500000000      0.500000000
O       0.362552766      0.425902588      0.701604512
O       0.637447234      0.925902588      0.298395488
O       0.637447234      0.574097412      0.298395488
O       0.362552766      0.074097412      0.701604512
species
Ti  2.196
O  -1.098
buck
Ti Ti 31120.1 0.1540 5.25  15
O  O  11782.7 0.2340 30.22 15
Ti O  16957.5 0.1940 12.59 15
lennard 12 6
Ti Ti   1   0 15
O  O    1   0 15
Ti O    1   0 15
