opti conj conp
switch_minimiser bfgs gnorm 0.5
vectors
 3.498943172      0.000000000     -0.238853500
 0.000000000      5.516306907      0.000000000
 0.000000000      0.000000000      9.340368583
frac
Ti      0.285671880     -0.000000000      0.823544596
Ti      0.714328120     -0.000000000      0.176455404
Ti      0.785671880      0.500000000      0.823544596
Ti      0.214328120      0.500000000      0.176455404
O       0.080372615      0.655235316      0.032186370
O       0.919627385      0.655235316      0.967813630
O       0.919627385      0.344764684      0.967813630
O       0.080372615      0.344764684      0.032186370
O       0.580372615      0.155235316      0.032186370
O       0.419627385      0.155235316      0.967813630
O       0.419627385      0.844764684      0.967813630
O       0.580372615      0.844764684      0.032186370
species
Ti  2.196
O  -1.098
buck
Ti Ti 31120.1 0.1540 5.25  15
O  O  11782.7 0.2340 30.22 15
Ti O  16957.5 0.1940 12.59 15
lennard 12 6
Ti Ti   1   0 15
O  O    1   0 15
Ti O    1   0 15
