opti conj conp
switch_minimiser bfgs gnorm 0.5
vectors
 3.307108002      0.000000000      0.000000000
 0.000000000      3.963051240      0.000000000
 0.000000000      0.000000000      7.527414083
frac
Ti     -0.000000000     -0.000000000      0.391274302
Ti     -0.000000000      0.500000000      0.891274302
Ti      0.500000000     -0.000000000      0.949563384
Ti      0.500000000      0.500000000      0.449563384
O      -0.000000000     -0.000000000      0.160984542
O      -0.000000000      0.500000000      0.660984542
O       0.565857116      0.724899187      0.121942545
O       0.434142884      0.275100813      0.121942545
O       0.565857116      0.775100813      0.621942545
O       0.434142884      0.224899187      0.621942545
O      -0.000000000     -0.000000000      0.883024916
O      -0.000000000      0.500000000      0.383024916
species
Ti  2.196
O  -1.098
buck
Ti Ti 31120.1 0.1540 5.25  15
O  O  11782.7 0.2340 30.22 15
Ti O  16957.5 0.1940 12.59 15
lennard 12 6
Ti Ti   1   0 15
O  O    1   0 15
Ti O    1   0 15
