opti conj conp
switch_minimiser bfgs gnorm 0.5
vectors
 4.481695917      0.000000000      0.000000000
 0.000000000      7.465498320      0.000000000
 0.000000000      0.000000000      5.509810653
frac
Ti     -0.000000000     -0.000000000      0.154399599
Ti     -0.000000000     -0.000000000      0.845600401
Ti      0.500000000      1.000000000      0.500000000
Ti      0.500000000      0.500000000      1.000000000
O      -0.000000000      0.852964064      0.500000000
O      -0.000000000      0.147035936      0.500000000
O       0.607364547      0.468411130      0.674121340
O       0.392635453      0.531588870      0.674121340
O       0.392635453      0.468411130      0.325878660
O       0.607364547      0.531588870      0.325878660
O       0.158193758     -0.000000000      0.500000000
O       0.841806242      1.000000000      0.500000000
species
Ti  2.196
O  -1.098
buck
Ti Ti 31120.1 0.1540 5.25  15
O  O  11782.7 0.2340 30.22 15
Ti O  16957.5 0.1940 12.59 15
lennard 12 6
Ti Ti   1   0 15
O  O    1   0 15
Ti O    1   0 15
