opti conj conp
switch_minimiser bfgs gnorm 0.5
vectors
 9.369769135      0.000000000      0.541556685
 0.000000000      2.687280653      0.000000000
 0.000000000      0.000000000      5.635086815
frac
Ti     -0.000000000      0.267526543      0.250000000
Ti     -0.000000000      0.732473457      0.750000000
Ti      0.500000000      0.500000000      1.000000000
Ti      0.500000000      0.500000000      0.500000000
O       0.938454961      0.577285612      0.571607101
O       0.061545039      0.577285612      0.928392899
O       0.061545039      0.422714388      0.428392899
O       0.938454961      0.422714388      0.071607101
O       0.500000000     -0.000000000     -0.000000000
O       0.500000000     -0.000000000      0.500000000
O       0.500000000      0.220705926      0.250000000
O       0.500000000      0.779294074      0.750000000
species
Ti  2.196
O  -1.098
buck
Ti Ti 31120.1 0.1540 5.25  15
O  O  11782.7 0.2340 30.22 15
Ti O  16957.5 0.1940 12.59 15
lennard 12 6
Ti Ti   1   0 15
O  O    1   0 15
Ti O    1   0 15
