opti conj conp
switch_minimiser bfgs gnorm 0.5
vectors
 7.320912990     -1.218499992      1.152994601
 0.000000000      5.993246706     -3.342908510
 0.000000000      0.000000000      3.783367389
frac
Ti      0.500000000      0.500000000      0.000000000
Ti      0.167556334      0.708410991      0.585732624
Ti      0.832443666      0.291589009      0.414267376
Ti      0.500000000     -0.000000000      0.000000000
O       0.756142977      0.760473530      0.330974941
O       0.243857023      0.239526470      0.669025059
O       0.500000000      0.500000000      0.500000000
O      -0.000000000      0.500000000     -0.000000000
O       0.502219696      0.737749019      0.995145416
O       0.497780304      0.262250981      0.004854584
O       0.052752842      0.890156437      0.712304894
O       0.947247158      0.109843563      0.287695106
species
Ti  2.196
O  -1.098
buck
Ti Ti 31120.1 0.1540 5.25  15
O  O  11782.7 0.2340 30.22 15
Ti O  16957.5 0.1940 12.59 15
lennard 12 6
Ti Ti   1   0 15
O  O    1   0 15
Ti O    1   0 15
