opti conj conp
switch_minimiser bfgs gnorm 0.5
vectors
 4.076578087      0.000000000     -0.473453103
 0.000000000      7.561401442      0.000000000
 0.000000000      0.000000000      4.403873170
frac
Ti      0.738361939      0.786054949      0.124629645
Ti      0.738361939      0.213945051      0.624629645
Ti      0.057737604      0.204326926      0.980278447
Ti      0.057737604      0.795673074      0.480278447
O       0.151919678      0.947960196      0.756007984
O       0.151919678      0.052039804      0.256007984
O       0.824193193      0.790161082      0.759597947
O       0.824193193      0.209838918      0.259597947
O       0.409619374      0.520806164      0.997330457
O       0.409619374      0.479193836      0.497330457
O       0.014424941      0.060279300      0.771517326
O       0.014424941      0.939720700      0.271517326
species
Ti  2.196
O  -1.098
buck
Ti Ti 31120.1 0.1540 5.25  15
O  O  11782.7 0.2340 30.22 15
Ti O  16957.5 0.1940 12.59 15
lennard 12 6
Ti Ti   1   0 15
O  O    1   0 15
Ti O    1   0 15
