opti conj conp
switch_minimiser bfgs gnorm 0.5
vectors
 6.409570728      0.000000000      0.000000000
 0.000000000      2.744505959      0.000000000
 0.000000000      0.000000000      8.694132454
frac
Ti     -0.000000000      0.250000000      0.963314914
Ti     -0.000000000      0.750000000      0.536685086
Ti      0.500000000      0.750000000      0.463314914
Ti      0.500000000      0.250000000      0.036685086
O      -0.000000000      0.250000000      0.235983214
O      -0.000000000      0.750000000      0.264016786
O       0.500000000      0.750000000      0.735983214
O       0.500000000      0.250000000      0.764016786
O       0.677352836      1.000000000      0.250000000
O       0.822647164     -0.000000000      0.750000000
O       0.177352836      0.500000000      0.750000000
O       0.322647164      0.500000000      0.250000000
species
Ti  2.196
O  -1.098
buck
Ti Ti 31120.1 0.1540 5.25  15
O  O  11782.7 0.2340 30.22 15
Ti O  16957.5 0.1940 12.59 15
lennard 12 6
Ti Ti   1   0 15
O  O    1   0 15
Ti O    1   0 15
