opti conj conp
switch_minimiser bfgs gnorm 0.5
vectors
 7.434741227      0.000000000      0.000000000
 0.000000000      5.592071806      0.000000000
 0.000000000      0.000000000      3.950948134
frac
Ti      0.864815961      0.261361647      0.873204951
Ti      0.135184039      0.738638353      0.873204951
Ti      0.864815961      0.738638353      0.373204951
Ti      0.135184039      0.261361647      0.373204951
O      -0.000000000     -0.000000000      0.095291645
O      -0.000000000     -0.000000000      0.595291645
O      -0.000000000     -0.000000000      0.401941428
O      -0.000000000     -0.000000000      0.901941428
O       0.500000000      1.000000000      0.816850742
O       0.500000000      1.000000000      0.316850742
O      -0.000000000      0.500000000      0.678437941
O      -0.000000000      0.500000000      0.178437941
species
Ti  2.196
O  -1.098
buck
Ti Ti 31120.1 0.1540 5.25  15
O  O  11782.7 0.2340 30.22 15
Ti O  16957.5 0.1940 12.59 15
lennard 12 6
Ti Ti   1   0 15
O  O    1   0 15
Ti O    1   0 15
