opti conj conp
switch_minimiser bfgs gnorm 0.5
vectors
 4.414901790      0.000000000      0.000000000
 0.000000000      5.704833555      0.000000000
 0.000000000      0.000000000      6.116809098
frac
Ti      0.500000000      0.945436167      0.470743791
Ti      0.500000000      0.054563833      0.970743791
Ti     -0.000000000      0.850949051      0.411811812
Ti     -0.000000000      0.149050949      0.911811812
O       0.208483256      0.528219851      0.467311060
O       0.791516744      0.471780149      0.967311060
O       0.208483256      0.471780149      0.967311060
O       0.791516744      0.528219851      0.467311060
O      -0.000000000      0.987603508      0.269823956
O      -0.000000000      0.012396492      0.769823956
O       0.500000000      0.335811367      0.659644132
O       0.500000000      0.664188633      0.159644132
species
Ti  2.196
O  -1.098
buck
Ti Ti 31120.1 0.1540 5.25  15
O  O  11782.7 0.2340 30.22 15
Ti O  16957.5 0.1940 12.59 15
lennard 12 6
Ti Ti   1   0 15
O  O    1   0 15
Ti O    1   0 15
