opti conj conp
switch_minimiser bfgs gnorm 0.5
vectors
 5.812363126      0.000000000     -1.425722046
 0.000000000      4.971731638      0.000000000
 0.000000000      0.000000000      3.620480416
frac
Ti     -0.000000000      0.500000000     -0.000000000
Ti     -0.000000000      0.500000000      0.500000000
Ti      0.500000000     -0.000000000     -0.000000000
Ti      0.500000000     -0.000000000      0.500000000
O       0.197987067      0.488208363      0.004124232
O       0.802012933      0.488208363      0.495875768
O       0.802012933      0.511791637      0.995875768
O       0.197987067      0.511791637      0.504124232
O       0.697987067      0.988208363      0.004124232
O       0.302012933      0.988208363      0.495875768
O       0.302012933      0.011791637      0.995875768
O       0.697987067      0.011791637      0.504124232
species
Ti  2.196
O  -1.098
buck
Ti Ti 31120.1 0.1540 5.25  15
O  O  11782.7 0.2340 30.22 15
Ti O  16957.5 0.1940 12.59 15
lennard 12 6
Ti Ti   1   0 15
O  O    1   0 15
Ti O    1   0 15
