opti conj conp
switch_minimiser bfgs gnorm 0.5
vectors
 4.621767016      0.000000000      0.000000000
 0.000000000      6.096252361      0.000000000
 0.000000000      0.000000000      4.663826147
frac
Ti      0.922470933      0.473982189      0.228206558
Ti      0.077529067      0.526017811      0.728206558
Ti      0.422470933      0.526017811      0.228206558
Ti      0.577529067      0.473982189      0.728206558
O       0.322690548      0.870582415      0.823377979
O       0.677309452      0.129417585      0.323377979
O       0.822690548      0.129417585      0.823377979
O       0.177309452      0.870582415      0.323377979
O       0.411591061      0.803569160      0.577252669
O       0.588408939      0.196430840      0.077252669
O       0.911591061      0.196430840      0.577252669
O       0.088408939      0.803569160      0.077252669
species
Ti  2.196
O  -1.098
buck
Ti Ti 31120.1 0.1540 5.25  15
O  O  11782.7 0.2340 30.22 15
Ti O  16957.5 0.1940 12.59 15
lennard 12 6
Ti Ti   1   0 15
O  O    1   0 15
Ti O    1   0 15
