opti conj conp
switch_minimiser bfgs gnorm 0.5
vectors
 5.677939582      0.000000000      0.000000000
 0.000000000      5.860974561      0.000000000
 0.000000000      0.000000000      5.832457713
frac
Ti     -0.000000000      0.500000000      0.620997198
Ti      0.500000000      0.500000000      0.620997198
Ti      0.250000000      0.187121891      0.694413119
Ti      0.750000000      0.812878109      0.694413119
O       0.954760861      0.394770092      0.352168292
O       0.045239139      0.605229908      0.352168292
O       0.454760861      0.605229908      0.352168292
O       0.545239139      0.394770092      0.352168292
O       0.063173223      0.307939037      0.644764454
O       0.936826777      0.692060963      0.644764454
O       0.563173223      0.692060963      0.644764454
O       0.436826777      0.307939037      0.644764454
species
Ti  2.196
O  -1.098
buck
Ti Ti 31120.1 0.1540 5.25  15
O  O  11782.7 0.2340 30.22 15
Ti O  16957.5 0.1940 12.59 15
lennard 12 6
Ti Ti   1   0 15
O  O    1   0 15
Ti O    1   0 15
