opti conj conp
switch_minimiser bfgs gnorm 0.5
vectors
 5.207467435      0.000000000      0.000000000
 0.000000000      3.479612592      0.000000000
 0.000000000      0.000000000      6.358236592
frac
Ti      0.500000000      0.000000000      0.000000000
Ti     -0.000000000      0.500000000      0.500000000
Ti     -0.000000000     -0.000000000     -0.000000000
Ti      0.500000000      0.500000000      0.500000000
O      -0.000000000     -0.000000000      0.500000000
O       0.500000000      0.500000000      0.000000000
O      -0.000000000     -0.000000000      0.337529739
O      -0.000000000     -0.000000000      0.662470261
O       0.500000000      0.500000000      0.837529739
O       0.500000000      0.500000000      0.162470261
O      -0.000000000      0.500000000     -0.000000000
O       0.500000000      0.000000000      0.500000000
species
Ti  2.196
O  -1.098
buck
Ti Ti 31120.1 0.1540 5.25  15
O  O  11782.7 0.2340 30.22 15
Ti O  16957.5 0.1940 12.59 15
lennard 12 6
Ti Ti   1   0 15
O  O    1   0 15
Ti O    1   0 15
