opti conj conp
switch_minimiser bfgs gnorm 0.5
vectors
 9.164246015      0.000000000      0.144436669
 0.000000000      5.069633663      0.000000000
 0.000000000      0.000000000      3.212371004
frac
Ti      0.284935731      0.144676535      0.595360292
Ti      0.715064269      0.144676535      0.404639708
Ti      0.617059081      0.761145613      0.156446300
Ti      0.382940919      0.761145613      0.843553700
O       0.500000000      0.936478218      0.500000000
O       0.272464091      0.623744266      0.417626034
O       0.727535909      0.623744266      0.582373966
O       0.654021519      0.989204959      0.817181378
O       0.345978481      0.989204959      0.182818622
O      -0.000000000      0.326378998     -0.000000000
O       0.315264599      0.908092798      0.554830473
O       0.684735401      0.908092798      0.445169527
species
Ti  2.196
O  -1.098
buck
Ti Ti 31120.1 0.1540 5.25  15
O  O  11782.7 0.2340 30.22 15
Ti O  16957.5 0.1940 12.59 15
lennard 12 6
Ti Ti   1   0 15
O  O    1   0 15
Ti O    1   0 15
