opti conj conp
switch_minimiser bfgs gnorm 0.5
vectors
 6.906625523      0.000000000     -2.422337881
 0.000000000      7.963387915      0.000000000
 0.000000000      0.000000000      2.967624523
frac
Ti      0.361924949      0.849089343      0.862298524
Ti      0.361924949      0.150910657      0.862298524
Ti      0.672396907      0.500000000      0.629110671
Ti      0.245470158      0.500000000      0.684878819
O       0.833391053      0.407578145      0.414850931
O       0.833391053      0.592421855      0.414850931
O       0.393848578      0.702004596      0.874884025
O       0.393848578      0.297995404      0.874884025
O       0.836626673      0.374837838      0.118334751
O       0.836626673      0.625162162      0.118334751
O       0.169452162      1.000000000      0.206963619
O       0.139943607      1.000000000      0.765402111
species
Ti  2.196
O  -1.098
buck
Ti Ti 31120.1 0.1540 5.25  15
O  O  11782.7 0.2340 30.22 15
Ti O  16957.5 0.1940 12.59 15
lennard 12 6
Ti Ti   1   0 15
O  O    1   0 15
Ti O    1   0 15
