opti conj conp
switch_minimiser bfgs gnorm 0.5
vectors
 7.216591540      0.000000000      0.000000000
 0.000000000      5.777699211      0.000000000
 0.000000000      0.000000000      5.492218556
frac
Ti     -0.000000000      0.663321769      0.250000000
Ti     -0.000000000      0.336678231      0.750000000
Ti      0.500000000      0.163321769      0.250000000
Ti      0.500000000      0.836678231      0.750000000
O       0.877860321      0.311320783      0.905514495
O       0.122139679      0.688679217      0.405514495
O       0.122139679      0.311320783      0.594485505
O       0.877860321      0.688679217      0.094485505
O       0.377860321      0.811320783      0.905514495
O       0.622139679      0.188679217      0.405514495
O       0.622139679      0.811320783      0.594485505
O       0.377860321      0.188679217      0.094485505
species
Ti  2.196
O  -1.098
buck
Ti Ti 31120.1 0.1540 5.25  15
O  O  11782.7 0.2340 30.22 15
Ti O  16957.5 0.1940 12.59 15
lennard 12 6
Ti Ti   1   0 15
O  O    1   0 15
Ti O    1   0 15
