opti conj conp
switch_minimiser bfgs gnorm 0.5
vectors
 5.811148305      0.000000000      0.000000000
 0.000000000      4.841862527      0.000000000
 0.000000000      0.000000000      7.064663459
frac
Ti     -0.000000000     -0.000000000      0.940197918
Ti      0.500000000      0.500000000      0.059802082
Ti     -0.000000000     -0.000000000      0.502892322
Ti      0.500000000      0.500000000      0.497107678
O       0.120894948      0.706602873      0.843625600
O       0.879105052      0.293397127      0.843625600
O       0.379105052      0.206602873      0.156374400
O       0.620894948      0.793397127      0.156374400
O      -0.000000000      0.500000000      0.132915469
O       0.500000000      0.000000000      0.867084531
O      -0.000000000     -0.000000000      0.336613705
O       0.500000000      0.500000000      0.663386295
species
Ti  2.196
O  -1.098
buck
Ti Ti 31120.1 0.1540 5.25  15
O  O  11782.7 0.2340 30.22 15
Ti O  16957.5 0.1940 12.59 15
lennard 12 6
Ti Ti   1   0 15
O  O    1   0 15
Ti O    1   0 15
