opti conj conp
switch_minimiser bfgs gnorm 0.5
vectors
 6.155749346      0.000000000     -0.078707927
 0.000000000      3.495490303      0.000000000
 0.000000000      0.000000000      5.858204023
frac
Ti     -0.000000000      0.786928402      0.000000000
Ti      0.500000000      0.286928402      0.000000000
Ti     -0.000000000      0.736766196      0.500000000
Ti      0.500000000      0.236766196      0.500000000
O       0.242278568      0.263411305      0.245159191
O       0.757721432      0.263411305      0.754840809
O       0.742278568      0.763411305      0.245159191
O       0.257721432      0.763411305      0.754840809
O       0.497824562      0.659400870      0.304384548
O       0.502175438      0.659400870      0.695615452
O       0.997824562      0.159400870      0.304384548
O       0.002175438      0.159400870      0.695615452
species
Ti  2.196
O  -1.098
buck
Ti Ti 31120.1 0.1540 5.25  15
O  O  11782.7 0.2340 30.22 15
Ti O  16957.5 0.1940 12.59 15
lennard 12 6
Ti Ti   1   0 15
O  O    1   0 15
Ti O    1   0 15
