opti conj conp
switch_minimiser bfgs gnorm 0.5
vectors
 8.660470319      0.000000000      0.000000000
 0.000000000      3.865961267      0.000000000
 0.000000000      0.000000000      6.068855134
frac
Ti      0.165641358      0.358493836      0.625657549
Ti      0.334358642      0.641506164      0.125657549
Ti      0.834358642      0.858493836      0.874342451
Ti      0.665641358      0.141506164      0.374342451
O       0.006892699      0.699457376      0.206353120
O       0.493107301      0.300542624      0.706353120
O       0.993107301      0.199457376      0.293646880
O       0.506892699      0.800542624      0.793646880
O       0.191626016      0.604629371      0.112381305
O       0.308373984      0.395370629      0.612381305
O       0.808373984      0.104629371      0.387618695
O       0.691626016      0.895370629      0.887618695
species
Ti  2.196
O  -1.098
buck
Ti Ti 31120.1 0.1540 5.25  15
O  O  11782.7 0.2340 30.22 15
Ti O  16957.5 0.1940 12.59 15
lennard 12 6
Ti Ti   1   0 15
O  O    1   0 15
Ti O    1   0 15
