opti conj conv
maxcyc 850
switch_minimiser bfgs gnorm 0.5
vectors
 1.230000000     -2.130422491      0.000000000
 1.230000000      2.130422491      0.000000000
 0.000000000      0.000000000     23.000000000
frac
C       0.333333333      0.666666667      0.565217391
C       0.666666667      0.333333333      0.565217391
C       0.333333333      0.666666667      0.434782609
C       0.666666667      0.333333333      0.434782609
lib /home/carlos/gulp-6.0/Libraries/edip_marks.lib
