opti conj conp
switch_minimiser bfgs gnorm 0.5
vectors
 4.652725860      0.540159089     -0.258412502
-0.651255852      5.539987517     -0.146492084
 0.264552559      0.166281555      5.110480170
frac
Ti      0.218233312      0.355281941      0.672782223
Ti      0.218230420      0.041934561      0.190785412
Ti      0.539858743      0.847860758      0.568812408
Ti      0.539851995      0.628249600      0.086795352
O       0.436061074      0.088812794      0.834204565
O       0.000405549      0.088803154      0.511346385
O       0.436069750      0.308404672      0.352207753
O       0.000412297      0.308414312      0.029365962
O       0.011518717      0.847851118      0.891654199
O       0.757676866      0.581381007      0.730231858
O       0.011510041      0.628259240      0.409653532
O       0.757679758      0.894728387      0.248231190
species
Ti  2.196
O  -1.098
buck
Ti Ti 31120.1 0.1540 5.25  15
O  O  11782.7 0.2340 30.22 15
Ti O  16957.5 0.1940 12.59 15
lennard 12 6
Ti Ti   1   0 15
O  O    1   0 15
Ti O    1   0 15
