opti conj conp
switch_minimiser bfgs gnorm 0.5
vectors
 5.903018991      0.058044063      1.400452064
-0.070007723      5.584445419      0.013809139
 0.244134703      0.126526878      4.123754675
frac
Ti      0.236074543      0.400710723      0.782123028
Ti      0.815089174      0.979735777      0.782116079
Ti      0.815088016      0.603312342      0.203093342
Ti      0.236071069      0.024287289      0.203101448
O       0.553407431      0.923421071      0.397014235
O       1.132446381      0.080590414      0.588190554
O       0.497760918      0.344397175      0.397017709
O       1.132454488      0.344408756      0.009188662
O       1.076772076      0.923430335      0.009166659
O       1.076766285      0.659616626      0.588202135
O       0.092318945      0.835364067      0.037907231
O       0.092320066      0.495475255      0.037908352
species
Ti  2.196
O  -1.098
buck
Ti Ti 31120.1 0.1540 5.25  15
O  O  11782.7 0.2340 30.22 15
Ti O  16957.5 0.1940 12.59 15
lennard 12 6
Ti Ti   1   0 15
O  O    1   0 15
Ti O    1   0 15
