opti conj conp
switch_minimiser bfgs gnorm 0.5
vectors
 5.720513837     -0.734368468     -0.038568452
-1.631090143      6.707672631     -1.358327536
 0.598989941     -0.130104112      3.612559466
frac
Ti      0.487880812      0.529384677      0.862241023
Ti      0.270310333      0.094275918      0.171343461
Ti      0.837417329      0.245230462      0.670750271
Ti      0.664475827      0.245229582      0.374813508
O       0.322514543      0.616851464      0.595590882
O       0.551761763      0.331267313      0.498923156
O       0.586222859      0.181761851      0.006020703
O       0.041882869      0.181735744      0.424153021
O       0.225853779      0.331277756      0.080758641
O       0.397282938      0.804617023      0.235249649
O       0.837415571      0.714107848      0.201874644
O       0.837415571      0.887047591      0.670752909
species
Ti  2.196
O  -1.098
buck
Ti Ti 31120.1 0.1540 5.25  15
O  O  11782.7 0.2340 30.22 15
Ti O  16957.5 0.1940 12.59 15
lennard 12 6
Ti Ti   1   0 15
O  O    1   0 15
Ti O    1   0 15
