opti conj conp
switch_minimiser bfgs gnorm 0.5
vectors
 7.052191273      0.198820640      1.758872810
 0.258739205      6.344704183     -0.587277609
 0.819704619     -0.265367366      3.232924646
frac
Ti      0.308839670      0.171355982      0.613121296
Ti      0.798946147      0.171354021      0.613122276
Ti      0.644309395      0.598070092      0.896389613
Ti      0.994096741      0.881762512      0.182003476
O       0.308839670      0.364177592      0.123016780
O       0.798947127      0.468637907      0.613120316
O       0.606123556      0.171354021      0.315838391
O       0.991767758      0.171354021      0.910407142
O       0.927805315      0.554507850      0.084668077
O       0.282689504      0.796864352      0.850961632
O       0.665095862      0.955802523      0.548027399
O       0.983979013      0.803160458      0.659262645
species
Ti  2.196
O  -1.098
buck
Ti Ti 31120.1 0.1540 5.25  15
O  O  11782.7 0.2340 30.22 15
Ti O  16957.5 0.1940 12.59 15
lennard 12 6
Ti Ti   1   0 15
O  O    1   0 15
Ti O    1   0 15
