opti conj conp
switch_minimiser bfgs gnorm 0.5
vectors
 5.626019036     -0.567837723     -1.756074689
-0.916547312      5.939976672     -1.115501401
-0.764252390     -1.139751485      4.604181843
frac
Ti      0.704559387      0.750356040      0.115230311
Ti      0.464485366      0.270243527      0.355282246
Ti      0.470780186      0.528362612      0.673116595
Ti      0.428203834      0.829335139      0.974085113
O       0.105765240      0.051635637      0.066176528
O       0.813073056      0.366778221      0.172859983
O       0.415430624      0.531758713      0.255328143
O       0.604590880      0.051646200      0.425798318
O       0.023233704      0.846864808      0.463794955
O       0.062516735      0.328121239      0.974080101
O       0.721377613      0.027152722      0.673106571
O       0.929402698      0.829325115      0.587948855
species
Ti  2.196
O  -1.098
buck
Ti Ti 31120.1 0.1540 5.25  15
O  O  11782.7 0.2340 30.22 15
Ti O  16957.5 0.1940 12.59 15
lennard 12 6
Ti Ti   1   0 15
O  O    1   0 15
Ti O    1   0 15
