opti conj conp
switch_minimiser bfgs gnorm 0.5
vectors
 6.672176640     -1.483401840      2.196267167
-1.146157800      5.919880469     -1.113240717
 0.560820768     -0.645936750      3.798114089
frac
Ti      0.385067182      0.195518870      0.804579266
Ti      1.060775381      0.195516167      0.804580617
Ti      1.060776732      0.871223014      0.128869716
Ti      0.385069885      0.871225717      0.128869716
O       0.650912410      0.871224365      0.538736741
O       0.385067182      0.461361395      0.128873770
O       1.060776732      0.605380489      0.804577914
O       0.794931504      0.195516167      0.394716295
O       0.385068534      1.281090039      0.128868365
O       1.326617906      0.195516167      0.214446290
O       0.119224657      0.871224365      0.070420439
O       1.060776732      1.137068242      0.804577914
species
Ti  2.196
O  -1.098
buck
Ti Ti 31120.1 0.1540 5.25  15
O  O  11782.7 0.2340 30.22 15
Ti O  16957.5 0.1940 12.59 15
lennard 12 6
Ti Ti   1   0 15
O  O    1   0 15
Ti O    1   0 15
