opti conj conp
switch_minimiser bfgs gnorm 0.5
vectors
 2.201693691     -2.166454166     -0.005523552
-1.739539957     11.550486790     -2.273777534
 0.537008332     -1.915672207      6.506963232
frac
Ti      0.710817294      0.756731099      0.119980659
Ti      0.470129141      0.275390414      0.360646670
Ti      0.890259763      0.152983764      0.780791732
Ti      0.168247291      0.634324449      0.540112243
O       0.527880243      0.853491559      0.829971961
O       0.110491376      0.056223305      0.070801393
O       0.781485835      0.537563027      0.723032929
O       0.819608551      0.372172052      0.177757753
O       0.217430408      0.372143172      0.640318188
O       0.420948912      0.537574580      0.260436875
O       0.610593059      0.056233894      0.431343129
O       0.027748716      0.853486745      0.469436964
species
Ti  2.196
O  -1.098
buck
Ti Ti 31120.1 0.1540 5.25  15
O  O  11782.7 0.2340 30.22 15
Ti O  16957.5 0.1940 12.59 15
lennard 12 6
Ti Ti   1   0 15
O  O    1   0 15
Ti O    1   0 15
