opti conj conp
switch_minimiser bfgs gnorm 0.5
vectors
 5.060232470      0.719941522     -0.255015696
-0.741543598      5.040243202     -0.485111389
 0.182911513      0.516640722      5.088112825
frac
Ti      0.341806068      0.384863100      0.730179816
Ti      0.813033925      0.856090014      0.730178873
Ti      0.023682027      0.231757399      0.577077885
Ti      0.659928224      0.537968800      0.883285516
O       0.023685797      0.702984313      0.412058602
O       0.188703195      0.231759284      0.105850028
O       0.494910826      0.066740944      0.577074115
O       0.341807953      0.856090014      0.258951959
O       0.188701310      0.702986198      0.883285516
O       0.494913653      0.537968800      0.412058602
O       0.659931052      0.066740001      0.105846259
O       0.813034867      0.384862157      0.258952902
species
Ti  2.196
O  -1.098
buck
Ti Ti 31120.1 0.1540 5.25  15
O  O  11782.7 0.2340 30.22 15
Ti O  16957.5 0.1940 12.59 15
lennard 12 6
Ti Ti   1   0 15
O  O    1   0 15
Ti O    1   0 15
