opti conj conp
switch_minimiser bfgs gnorm 0.5
vectors
13.579529040     -4.902781653     -2.972680728
-2.995473158      6.095911674     -6.610763660
-1.051506696     -3.377033982      3.705807205
frac
Ti      0.118289008      0.060061554      0.247159165
Ti      0.325860197      0.060060723      0.247159580
Ti      0.325860612      0.267631497      0.039587562
Ti      0.118289839      0.267632327      0.039587562
O       0.199954156      0.267631912      0.165494848
O       0.118289008      0.141725871      0.039588807
O       0.325860612      0.185967179      0.247158750
O       0.244195464      0.060060723      0.121253125
O       0.118289423      0.393538782      0.039587147
O       0.407524514      0.060060723      0.373066451
O       0.036624691      0.267631912      0.328823068
O       0.325860612      0.349296644      0.247158750
species
Ti  2.196
O  -1.098
buck
Ti Ti 31120.1 0.1540 5.25  15
O  O  11782.7 0.2340 30.22 15
Ti O  16957.5 0.1940 12.59 15
lennard 12 6
Ti Ti   1   0 15
O  O    1   0 15
Ti O    1   0 15
