opti conj conp
switch_minimiser bfgs gnorm 0.5
vectors
 9.338764726     -1.721170180      2.142023796
-4.178897170      4.596269587     -4.696997931
 3.139933627     -3.276150034      7.106848526
frac
Ti      0.180126906      0.202817346      0.384794313
Ti      0.428457243      0.451147186      0.384793816
Ti      0.180127900      0.451147186      0.136463976
Ti      0.428457739      0.202816849      0.136464473
O       0.012482076      0.370462673      0.217148986
O       0.099443883      0.122133826      0.055781450
O       0.260810923      0.035171522      0.304109800
O       0.012480089      0.122132833      0.304111787
O       0.099442890      0.370463666      0.465478826
O       0.347772730      0.283501859      0.465478826
O       0.347774220      0.035171026      0.055779464
O       0.260812413      0.283501859      0.217148986
species
Ti  2.196
O  -1.098
buck
Ti Ti 31120.1 0.1540 5.25  15
O  O  11782.7 0.2340 30.22 15
Ti O  16957.5 0.1940 12.59 15
lennard 12 6
Ti Ti   1   0 15
O  O    1   0 15
Ti O    1   0 15
