opti conj conp
switch_minimiser bfgs gnorm 0.5
vectors
 5.534481124      0.419278652     -0.125310017
-0.663929204      3.733917588      0.739270515
 0.442328730      0.988102779      6.571980518
frac
Ti      0.865336899      0.000099854      0.332300577
Ti      0.361013279      0.504416415      0.332294525
Ti      0.361012270      0.176560875      0.836611086
Ti      0.865333874      0.680875417      0.836618146
O       0.133094926      0.455367693      0.005511407
O       0.084619106      0.729924139      0.501196864
O       0.637423589      0.729914053      0.163390170
O       0.084628184      0.959683244      0.005514433
O       0.637430650      0.959693330      0.667724885
O       0.133096943      0.225608588      0.501195855
O       0.588932641      0.455375762      0.667705721
O       0.588927597      0.225600519      0.163400256
species
Ti  2.196
O  -1.098
buck
Ti Ti 31120.1 0.1540 5.25  15
O  O  11782.7 0.2340 30.22 15
Ti O  16957.5 0.1940 12.59 15
lennard 12 6
Ti Ti   1   0 15
O  O    1   0 15
Ti O    1   0 15
