opti conj conp
switch_minimiser bfgs gnorm 0.5
vectors
 4.969681984      0.008357144     -1.333740828
-0.004786557      7.558729356      0.029811383
 0.893260036     -0.012539952      3.328075208
frac
Ti      0.341694284      0.801627016      0.814098609
Ti      0.834826379      0.093542616      0.342025664
Ti      0.065754848      0.326565986      0.342003949
Ti      0.166648246      0.090543203      0.814057069
O       0.525857519      0.402843800      0.342030384
O       0.525864128      0.874895032      0.342037937
O       0.166659575      0.562592546      0.814055181
O       0.341691452      0.329570120      0.814089168
O       0.650649927      0.166820073      0.814085392
O       0.650665032      0.638870360      0.814083504
O       0.834829211      0.565594792      0.342020943
O       0.065762401      0.798618161      0.341989788
species
Ti  2.196
O  -1.098
buck
Ti Ti 31120.1 0.1540 5.25  15
O  O  11782.7 0.2340 30.22 15
Ti O  16957.5 0.1940 12.59 15
lennard 12 6
Ti Ti   1   0 15
O  O    1   0 15
Ti O    1   0 15
