opti conj conp
switch_minimiser bfgs gnorm 0.5
vectors
 4.652725860      0.540159089     -0.258412502
-0.651255852      5.539987517     -0.146492084
 0.264552559      0.166281555      5.110480170
frac
Ti      0.827044285      0.000095436      0.317595717
Ti      0.562871380      0.435224618      0.638158619
Ti      0.345036870      0.168747759      0.799589637
Ti      0.827041393      0.650745534      0.799596385
O       0.127205251      0.435216906      0.961015835
O       0.080874569      0.697623768      0.479018059
O       0.609216523      0.697614128      0.156159880
O       0.080883244      0.917215645      0.961018727
O       0.609223271      0.917225285      0.638176935
O       0.345037834      0.482095139      0.317589933
O       0.127207179      0.215625028      0.479017095
O       0.562866560      0.215617316      0.156169520
species
Ti  2.196
O  -1.098
buck
Ti Ti 31120.1 0.1540 5.25  15
O  O  11782.7 0.2340 30.22 15
Ti O  16957.5 0.1940 12.59 15
lennard 12 6
Ti Ti   1   0 15
O  O    1   0 15
Ti O    1   0 15
