opti conj conp
switch_minimiser bfgs gnorm 0.5
vectors
 3.882449834     -6.486023715    -10.864312657
-7.395226722     11.429991596      4.173625334
-0.918825125      4.260545109     13.936415143
frac
Ti      0.053499013      0.238387056      0.251033903
Ti      0.290550680      0.040847424      0.013981605
Ti      0.290550047      0.198881026      0.013982869
Ti      0.053498065      0.080352190      0.251032323
O       0.224789158      0.073722654      0.079737437
O       0.119258322      0.205509930      0.185277439
O       0.119258006      0.047476644      0.185274595
O       0.224792951      0.231757836      0.079744706
O       0.303811332      0.271268923      0.000730118
O       0.040236780      0.165999475      0.264289815
O       0.040236464      0.007965558      0.264289815
O       0.303808488      0.113234689      0.000723165
species
Ti  2.196
O  -1.098
buck
Ti Ti 31120.1 0.1540 5.25  15
O  O  11782.7 0.2340 30.22 15
Ti O  16957.5 0.1940 12.59 15
lennard 12 6
Ti Ti   1   0 15
O  O    1   0 15
Ti O    1   0 15
