opti conj conv
switch_minimiser bfgs gnorm 0.5
vectors
 9.504460942      0.000000000      0.000000000
 0.000000000      7.092942900      0.000000000
 0.000000000      0.000000000     18.000000000
frac
C      -0.000000000     -0.000000000      0.500000000
C       0.500000000      0.500000000      0.500000000
C       0.317073181      0.895718459      0.500000000
C      -0.317073181     -0.895718459      0.500000000
C       0.817073181     -0.395718459      0.500000000
C       0.182926819      1.395718459      0.500000000
lib /home/carlos/gulp-6.0/Libraries/edip_marks.lib
