opti conj conv
switch_minimiser bfgs gnorm 0.5
vectors
 2.772693956      0.000000000      0.000000000
 0.000000000      6.535394497      0.000000000
 0.000000000      0.000000000     18.000000000
frac
C      -0.000000000      0.500000000      0.500000000
C       0.500000000     -0.000000000      0.500000000
C       0.029157941      0.081091466      0.500000000
C      -0.029157941     -0.081091466      0.500000000
C       0.529157941      0.418908534      0.500000000
C       0.470842059      0.581091466      0.500000000
lib /home/carlos/gulp-6.0/Libraries/edip_marks.lib
