opti conj conv
switch_minimiser bfgs gnorm 0.5
vectors
 7.864391586      0.000000000      0.000000000
 0.000000000     10.387550774      0.000000000
 0.000000000      0.000000000     18.000000000
frac
C       0.770617340      0.474279479      0.500000000
C      -0.770617340     -0.474279479      0.500000000
C       1.270617340      0.025720521      0.500000000
C      -0.270617340      0.974279479      0.500000000
C      -0.000000000     -0.000000000      0.500000000
C       0.500000000      0.500000000      0.500000000
lib /home/carlos/gulp-6.0/Libraries/edip_marks.lib
