opti conj conv
switch_minimiser bfgs gnorm 0.5
vectors
 5.256254662      0.000000000      0.000000000
 0.000000000      3.757537892      0.000000000
 0.000000000      0.000000000     18.000000000
frac
C       0.141136278      0.412809145      0.500000000
C      -0.141136278     -0.412809145      0.500000000
C       0.641136278      0.087190855      0.500000000
C       0.358863722      0.912809145      0.500000000
C      -0.000000000      0.500000000      0.500000000
C       0.500000000     -0.000000000      0.500000000
lib /home/carlos/gulp-6.0/Libraries/edip_marks.lib
