opti conj conv
switch_minimiser bfgs gnorm 0.5
vectors
 3.370615825      0.000000000      0.000000000
 0.000000000      4.632959583      0.000000000
 0.000000000      0.000000000     18.000000000
frac
C       0.889300814      0.461685179      0.500000000
C      -0.889300814     -0.461685179      0.500000000
C       1.389300814      0.038314821      0.500000000
C      -0.389300814      0.961685179      0.500000000
C      -0.000000000     -0.000000000      0.500000000
C       0.500000000      0.500000000      0.500000000
lib /home/carlos/gulp-6.0/Libraries/edip_marks.lib
