opti conj conv
switch_minimiser bfgs gnorm 0.5
vectors
 6.505404208      0.000000000      0.000000000
 0.000000000      6.256924994      0.000000000
 0.000000000      0.000000000     18.000000000
frac
C      -0.000000000      0.500000000      0.500000000
C       0.500000000     -0.000000000      0.500000000
C       0.659306242      0.101879618      0.500000000
C      -0.659306242     -0.101879618      0.500000000
C       1.159306242      0.398120382      0.500000000
C      -0.159306242      0.601879618      0.500000000
lib /home/carlos/gulp-6.0/Libraries/edip_marks.lib
