opti conj conv
switch_minimiser bfgs gnorm 0.5
vectors
 6.345706491      0.000000000      0.000000000
 0.000000000      5.045561124      0.000000000
 0.000000000      0.000000000     18.000000000
frac
C       0.155958994      0.912960504      0.500000000
C      -0.155958994     -0.912960504      0.500000000
C       0.655958994     -0.412960504      0.500000000
C       0.344041006      1.412960504      0.500000000
C      -0.000000000     -0.000000000      0.500000000
C       0.500000000      0.500000000      0.500000000
lib /home/carlos/gulp-6.0/Libraries/edip_marks.lib
