opti conjugate nosymmetry conp 
pressure 100 GPa
vectors
 5.044439075      0.000000000      0.000000000
 0.000000000      5.044439075      0.000000000
 0.000000000      0.000000000     11.102518544
frac
Al      0.500000000      0.500000000      0.308601782
Al      0.500000000      0.500000000      0.808601782
Al      0.798190831      0.428754839      0.415943171
Al      0.201809169      0.571245161      0.415943171
Al      0.571245161      0.798190831      0.915943171
Al      0.428754839      0.201809169      0.915943171
Al     -0.000000000      0.500000000      0.591993843
Al      0.500000000     -0.000000000      0.091993843
Mg      0.024826850      0.145604141      0.156732576
Mg      0.975173150      0.854395859      0.156732576
Mg      0.854395859      0.024826850      0.656732576
Mg      0.145604141      0.975173150      0.656732576
O      -0.000000000     -0.000000000      0.824586840
O      -0.000000000     -0.000000000      0.324586840
O       0.180156959      0.827791188      0.932267686
O       0.819843041      0.172208812      0.932267686
O       0.172208812      0.180156959      0.432267686
O       0.827791188      0.819843041      0.432267686
O       0.755657787      0.407683252      0.264370818
O       0.244342213      0.592316748      0.264370818
O       0.592316748      0.755657787      0.764370818
O       0.407683252      0.244342213      0.764370818
O       0.574463135      0.845241815      0.658133079
O       0.425536865      0.154758185      0.658133079
O       0.154758185      0.574463135      0.158133079
O       0.845241815      0.425536865      0.158133079
O       0.500000000      0.500000000      0.912930110
O       0.500000000      0.500000000      0.412930110
species
Mg  2.0
Al  3.0
O  -2.0
lennard 12 6
Mg O   1.50 0.00 0.00 6.0
Al O   1.50 0.00 0.00 6.0
O O    1.50 0.00 0.00 6.0
Mg Mg  1.50 0.00 0.00 6.0
Mg Al  1.50 0.00 0.00 6.0
Al Al  1.50 0.00 0.00 6.0
buck
Mg O 1428.5 0.2945 0.0 0.0 7.0
Al O 1114.9 0.3118 0.0 0.0 7.0
O O  2023.8 0.2674 0.0 0.0 7.0
maxcyc 850
switch rfo 0.010
