opti conjugate nosymmetry conp 
pressure 100 GPa
vectors
 5.595407934      0.000000000      0.000000000
 0.000000000      7.517740918      0.000000000
 0.000000000      0.000000000      5.664413274
frac
Al      0.250000000      0.250000000      0.750000000
Al      0.250000000      0.750000000      0.250000000
Al      0.750000000      0.250000000      0.250000000
Al      0.750000000      0.750000000      0.750000000
Al     -0.000000000     -0.000000000     -0.000000000
Al     -0.000000000      0.500000000      0.500000000
Al      0.500000000      0.000000000      0.500000000
Al      0.500000000      0.500000000     -0.000000000
Mg     -0.000000000     -0.000000000      0.500000000
Mg     -0.000000000      0.500000000     -0.000000000
Mg      0.500000000      0.000000000      0.000000000
Mg      0.500000000      0.500000000      0.500000000
O       0.250000000      0.466692262      0.250000000
O       0.750000000      0.533307738      0.250000000
O       0.250000000      0.966692262      0.750000000
O       0.750000000      0.033307738      0.750000000
O       0.750000000      0.466692262      0.750000000
O       0.250000000      0.533307738      0.750000000
O       0.750000000      0.966692262      0.250000000
O       0.250000000      0.033307738      0.250000000
O      -0.000000000     -0.000000000      0.187692569
O      -0.000000000     -0.000000000      0.812307431
O      -0.000000000      0.500000000      0.687692569
O      -0.000000000      0.500000000      0.312307431
O       0.500000000      0.000000000      0.687692569
O       0.500000000      0.000000000      0.312307431
O       0.500000000      0.500000000      0.187692569
O       0.500000000      0.500000000      0.812307431
species
Mg  2.0
Al  3.0
O  -2.0
lennard 12 6
Mg O   1.50 0.00 0.00 6.0
Al O   1.50 0.00 0.00 6.0
O O    1.50 0.00 0.00 6.0
Mg Mg  1.50 0.00 0.00 6.0
Mg Al  1.50 0.00 0.00 6.0
Al Al  1.50 0.00 0.00 6.0
buck
Mg O 1428.5 0.2945 0.0 0.0 7.0
Al O 1114.9 0.3118 0.0 0.0 7.0
O O  2023.8 0.2674 0.0 0.0 7.0
maxcyc 850
switch rfo 0.010
