opti conjugate nosymmetry conp 
pressure 100 GPa
vectors
 7.782522388      0.000000000      0.000000000
 0.000000000      7.782522388      0.000000000
 0.000000000      0.000000000      5.300448373
frac
Al      0.087578802      0.087578802      0.673287649
Al      0.412421198      0.412421198      0.673287649
Al      0.412421198      0.087578802      0.173287649
Al      0.087578802      0.412421198      0.173287649
Al      0.912421198      0.587578802      0.826712351
Al      0.587578802      0.912421198      0.826712351
Al      0.587578802      0.587578802      0.326712351
Al      0.912421198      0.912421198      0.326712351
Mg      0.250000000      0.250000000      0.101511973
Mg      0.250000000      0.250000000      0.601511973
Mg      0.750000000      0.750000000      0.398488027
Mg      0.750000000      0.750000000      0.898488027
O      -0.000000000     -0.000000000      0.500000000
O       0.500000000      0.500000000      0.500000000
O       0.500000000     -0.000000000     -0.000000000
O      -0.000000000      0.500000000     -0.000000000
O       0.361140879      0.638859121      0.500000000
O       0.138859121      0.861140879      0.500000000
O       0.861140879      0.361140879      1.000000000
O       0.638859121      0.138859121      1.000000000
O       0.638859121      0.361140879      0.500000000
O       0.861140879      0.138859121      0.500000000
O       0.138859121      0.638859121      1.000000000
O       0.361140879      0.861140879      1.000000000
O       0.750000000      0.250000000      1.000000000
O       0.250000000      0.750000000      0.500000000
O       0.250000000      0.750000000     -0.000000000
O       0.750000000      0.250000000      0.500000000
species
Mg  2.0
Al  3.0
O  -2.0
lennard 12 6
Mg O   1.50 0.00 0.00 6.0
Al O   1.50 0.00 0.00 6.0
O O    1.50 0.00 0.00 6.0
Mg Mg  1.50 0.00 0.00 6.0
Mg Al  1.50 0.00 0.00 6.0
Al Al  1.50 0.00 0.00 6.0
buck
Mg O 1428.5 0.2945 0.0 0.0 7.0
Al O 1114.9 0.3118 0.0 0.0 7.0
O O  2023.8 0.2674 0.0 0.0 7.0
maxcyc 850
switch rfo 0.010
