opti conjugate nosymmetry conp 
pressure 100 GPa
vectors
 7.607224148     -4.392032910      0.000000000
 0.000000000      8.784065820      0.000000000
 0.000000000      0.000000000      6.119724449
frac
Al      0.881495086      0.118504914      0.500000000
Al      0.881495086      0.762990171      0.500000000
Al      0.237009829      0.118504914      0.500000000
Al      0.118504914      0.881495086      0.500000000
Al      0.118504914      0.237009829      0.500000000
Al      0.762990171      0.881495086      0.500000000
Al      0.333333333      0.666666667     -0.000000000
Al      0.666666667      0.333333333     -0.000000000
Mg     -0.000000000     -0.000000000     -0.000000000
Mg      0.500000000     -0.000000000     -0.000000000
Mg     -0.000000000      0.500000000     -0.000000000
Mg      0.500000000      0.500000000     -0.000000000
O       0.619579436      0.337854008      0.204311280
O       0.662145992      0.281725428      0.204311280
O       0.718274572      0.380420564      0.204311280
O       0.662145992      0.380420564      0.795688720
O       0.718274572      0.337854008      0.795688720
O       0.619579436      0.281725428      0.795688720
O       0.380420564      0.662145992      0.795688720
O       0.337854008      0.718274572      0.795688720
O       0.281725428      0.619579436      0.795688720
O       0.337854008      0.619579436      0.204311280
O       0.281725428      0.662145992      0.204311280
O       0.380420564      0.718274572      0.204311280
O       0.333333333      0.666666667      0.500000000
O       0.666666667      0.333333333      0.500000000
O      -0.000000000     -0.000000000      0.268160396
O      -0.000000000     -0.000000000      0.731839604
species
Mg  2.0
Al  3.0
O  -2.0
lennard 12 6
Mg O   1.50 0.00 0.00 6.0
Al O   1.50 0.00 0.00 6.0
O O    1.50 0.00 0.00 6.0
Mg Mg  1.50 0.00 0.00 6.0
Mg Al  1.50 0.00 0.00 6.0
Al Al  1.50 0.00 0.00 6.0
buck
Mg O 1428.5 0.2945 0.0 0.0 7.0
Al O 1114.9 0.3118 0.0 0.0 7.0
O O  2023.8 0.2674 0.0 0.0 7.0
maxcyc 850
switch rfo 0.010
