opti conjugate nosymmetry conp 
pressure 100 GPa
vectors
 6.458752435      0.000000000      0.000000000
 0.000000000      6.458752435      0.000000000
 0.000000000      0.000000000      5.161622936
frac
Al      0.500000000      0.500000000      0.250000000
Al      0.500000000      0.500000000      0.750000000
Al     -0.000000000     -0.000000000      0.250000000
Al     -0.000000000     -0.000000000      0.750000000
Al     -0.000000000      0.500000000      0.500000000
Al      0.500000000     -0.000000000      1.000000000
Al     -0.000000000     -0.000000000     -0.000000000
Al     -0.000000000     -0.000000000      0.500000000
Mg      0.222365297      0.500000000      1.000000000
Mg      0.777634703      0.500000000      1.000000000
Mg      0.500000000      0.222365297      0.500000000
Mg      0.500000000      0.777634703      0.500000000
O       0.214981062      0.359656576      0.765114561
O       0.785018938      0.640343424      0.765114561
O       0.640343424      0.214981062      0.265114561
O       0.359656576      0.785018938      0.265114561
O       0.785018938      0.359656576      0.234885439
O       0.214981062      0.640343424      0.234885439
O       0.359656576      0.214981062      0.734885439
O       0.640343424      0.785018938      0.734885439
O       0.785018938      0.640343424      0.234885439
O       0.214981062      0.359656576      0.234885439
O       0.359656576      0.785018938      0.734885439
O       0.640343424      0.214981062      0.734885439
O       0.214981062      0.640343424      0.765114561
O       0.785018938      0.359656576      0.765114561
O       0.640343424      0.785018938      0.265114561
O       0.359656576      0.214981062      0.265114561
species
Mg  2.0
Al  3.0
O  -2.0
lennard 12 6
Mg O   1.50 0.00 0.00 6.0
Al O   1.50 0.00 0.00 6.0
O O    1.50 0.00 0.00 6.0
Mg Mg  1.50 0.00 0.00 6.0
Mg Al  1.50 0.00 0.00 6.0
Al Al  1.50 0.00 0.00 6.0
buck
Mg O 1428.5 0.2945 0.0 0.0 7.0
Al O 1114.9 0.3118 0.0 0.0 7.0
O O  2023.8 0.2674 0.0 0.0 7.0
maxcyc 850
switch rfo 0.010
