opti conjugate nosymmetry conp 
pressure 100 GPa
vectors
 4.540053513      0.000000000      0.000000000
 0.000000000      4.540053513      0.000000000
 0.000000000      0.000000000      9.946561643
frac
Al      0.117397623      0.117397623     -0.000000000
Al      0.882602377      0.882602377      0.500000000
Al      0.382602377      0.617397623      0.750000000
Al      0.617397623      0.382602377      0.250000000
Al      0.366369892      0.366369892     -0.000000000
Al      0.633630108      0.633630108      0.500000000
Al      0.133630108      0.866369892      0.750000000
Al      0.866369892      0.133630108      0.250000000
Mg      0.688933956      0.688933956      1.000000000
Mg      0.311066044      0.311066044      0.500000000
Mg      0.811066044      0.188933956      0.750000000
Mg      0.188933956      0.811066044      0.250000000
O       0.068830551      0.221904195      0.230831233
O       0.931169449      0.778095805      0.730831233
O       0.278095805      0.568830551      0.980831233
O       0.721904195      0.431169449      0.480831233
O       0.431169449      0.721904195      0.519168767
O       0.568830551      0.278095805      0.019168767
O       0.221904195      0.068830551      0.769168767
O       0.778095805      0.931169449      0.269168767
O       0.338084896      0.614300407      0.589402705
O       0.661915104      0.385699593      0.089402705
O       0.885699593      0.838084896      0.339402705
O       0.114300407      0.161915104      0.839402705
O       0.161915104      0.114300407      0.160597295
O       0.838084896      0.885699593      0.660597295
O       0.614300407      0.338084896      0.410597295
O       0.385699593      0.661915104      0.910597295
species
Mg  2.0
Al  3.0
O  -2.0
lennard 12 6
Mg O   1.50 0.00 0.00 6.0
Al O   1.50 0.00 0.00 6.0
O O    1.50 0.00 0.00 6.0
Mg Mg  1.50 0.00 0.00 6.0
Mg Al  1.50 0.00 0.00 6.0
Al Al  1.50 0.00 0.00 6.0
buck
Mg O 1428.5 0.2945 0.0 0.0 7.0
Al O 1114.9 0.3118 0.0 0.0 7.0
O O  2023.8 0.2674 0.0 0.0 7.0
maxcyc 850
switch rfo 0.010
