opti conjugate nosymmetry conp 
pressure 100 GPa
vectors
 7.761863602      0.000000000      0.000000000
 0.000000000      5.673806497      0.000000000
 0.000000000      0.000000000      8.918109865
frac
Al      0.946737462      0.247328451      0.170906151
Al      0.553262538      0.752671549      0.670906151
Al      0.053262538      0.747328451      0.329093849
Al      0.446737462      0.252671549      0.829093849
Al      0.065976025      0.886969770      0.522992113
Al      0.434023975      0.113030230      0.022992113
Al      0.934023975      0.386969770      0.977007887
Al      0.565976025      0.613030230      0.477007887
Mg      0.705522799      0.396005750      0.213981496
Mg      0.794477201      0.603994250      0.713981496
Mg      0.294477201      0.896005750      0.286018504
Mg      0.205522799      0.103994250      0.786018504
O       0.614607863      0.954931751      0.006735752
O       0.885392137      0.045068249      0.506735752
O       0.385392137      0.454931751      0.493264248
O       0.114607863      0.545068249      0.993264248
O       0.413152368      0.969389852      0.439101936
O       0.086847632      0.030610148      0.939101936
O       0.586847632      0.469389852      0.060898064
O       0.913152368      0.530610148      0.560898064
O       0.982844713      0.600660255      0.446609619
O       0.517155287      0.399339745      0.946609619
O       0.017155287      0.100660255      0.053390381
O       0.482844713      0.899339745      0.553390381
O       0.690225326      0.335188689      0.040868927
O       0.809774674      0.664811311      0.540868927
O       0.309774674      0.835188689      0.459131073
O       0.190225326      0.164811311      0.959131073
species
Mg  2.0
Al  3.0
O  -2.0
lennard 12 6
Mg O   1.50 0.00 0.00 6.0
Al O   1.50 0.00 0.00 6.0
O O    1.50 0.00 0.00 6.0
Mg Mg  1.50 0.00 0.00 6.0
Mg Al  1.50 0.00 0.00 6.0
Al Al  1.50 0.00 0.00 6.0
buck
Mg O 1428.5 0.2945 0.0 0.0 7.0
Al O 1114.9 0.3118 0.0 0.0 7.0
O O  2023.8 0.2674 0.0 0.0 7.0
maxcyc 850
switch rfo 0.010
