opti conjugate nosymmetry conp 
pressure 100 GPa
vectors
 3.307491859      0.000000000      0.000000000
 0.000000000      9.579029698      0.000000000
 0.000000000      0.000000000      5.735680610
frac
Al      0.274714769     -0.000000000      0.198326711
Al      0.725285231      1.000000000      0.198326711
Al      0.774714769      0.500000000      0.198326711
Al      0.225285231      0.500000000      0.198326711
Al     -0.000000000     -0.000000000      0.824283727
Al      0.500000000      0.500000000      0.824283727
Al     -0.000000000      0.500000000      0.032046857
Al      0.500000000      1.000000000      0.032046857
Mg     -0.000000000      0.758102352      0.374679608
Mg     -0.000000000      0.241897648      0.374679608
Mg      0.500000000      0.258102352      0.374679608
Mg      0.500000000      0.741897648      0.374679608
O       0.343842521      0.457011420      0.957173419
O       0.656157479      0.542988580      0.957173419
O       0.343842521      0.542988580      0.957173419
O       0.656157479      0.457011420      0.957173419
O       0.843842521      0.957011420      0.957173419
O       0.156157479      0.042988580      0.957173419
O       0.843842521      0.042988580      0.957173419
O       0.156157479      0.957011420      0.957173419
O       0.250000000      0.250000000      0.760521231
O       0.250000000      0.750000000      0.760521231
O       0.750000000      0.750000000      0.760521231
O       0.750000000      0.250000000      0.760521231
O      -0.000000000     -0.000000000      0.313283861
O       0.500000000      0.500000000      0.313283861
O      -0.000000000     -0.000000000      0.129471821
O       0.500000000      0.500000000      0.129471821
species
Mg  2.0
Al  3.0
O  -2.0
lennard 12 6
Mg O   1.50 0.00 0.00 6.0
Al O   1.50 0.00 0.00 6.0
O O    1.50 0.00 0.00 6.0
Mg Mg  1.50 0.00 0.00 6.0
Mg Al  1.50 0.00 0.00 6.0
Al Al  1.50 0.00 0.00 6.0
buck
Mg O 1428.5 0.2945 0.0 0.0 7.0
Al O 1114.9 0.3118 0.0 0.0 7.0
O O  2023.8 0.2674 0.0 0.0 7.0
maxcyc 850
switch rfo 0.010
