opti conjugate nosymmetry conp 
pressure 100 GPa
vectors
12.999460743      0.000000000      0.000000000
 0.000000000      5.534520783      0.000000000
 0.000000000      0.000000000      5.377718514
frac
Al     -0.000000000      0.869378019      0.250000000
Al     -0.000000000      0.130621981      0.750000000
Al      0.500000000      0.369378019      0.250000000
Al      0.500000000      0.630621981      0.750000000
Al     -0.000000000      0.250319979      0.250000000
Al     -0.000000000      0.749680021      0.750000000
Al      0.500000000      0.750319979      0.250000000
Al      0.500000000      0.249680021      0.750000000
Mg     -0.000000000      0.577454104      0.250000000
Mg     -0.000000000      0.422545896      0.750000000
Mg      0.500000000      0.077454104      0.250000000
Mg      0.500000000      0.922545896      0.750000000
O       0.063436113      0.621501630      0.481668767
O       0.936563887      0.378498370      0.981668767
O       0.936563887      0.621501630      0.018331233
O       0.063436113      0.378498370      0.518331233
O       0.563436113      0.121501630      0.481668767
O       0.436563887      0.878498370      0.981668767
O       0.436563887      0.121501630      0.018331233
O       0.563436113      0.878498370      0.518331233
O       0.355504266      0.259769435      0.358996496
O       0.644495734      0.740230565      0.858996496
O       0.644495734      0.259769435      0.141003504
O       0.355504266      0.740230565      0.641003504
O       0.855504266      0.759769435      0.358996496
O       0.144495734      0.240230565      0.858996496
O       0.144495734      0.759769435      0.141003504
O       0.855504266      0.240230565      0.641003504
species
Mg  2.0
Al  3.0
O  -2.0
lennard 12 6
Mg O   1.50 0.00 0.00 6.0
Al O   1.50 0.00 0.00 6.0
O O    1.50 0.00 0.00 6.0
Mg Mg  1.50 0.00 0.00 6.0
Mg Al  1.50 0.00 0.00 6.0
Al Al  1.50 0.00 0.00 6.0
buck
Mg O 1428.5 0.2945 0.0 0.0 7.0
Al O 1114.9 0.3118 0.0 0.0 7.0
O O  2023.8 0.2674 0.0 0.0 7.0
maxcyc 850
switch rfo 0.010
