opti conjugate nosymmetry conp 
pressure 100 GPa
vectors
 4.448215559      0.000000000      0.000000000
 0.000000000      7.781791396      0.000000000
 0.000000000      0.000000000      7.883340486
frac
Al     -0.000000000     -0.000000000      0.879972477
Al     -0.000000000      0.500000000      0.379972477
Al     -0.000000000      0.133181361      0.625799228
Al     -0.000000000      0.866818639      0.625799228
Al     -0.000000000      0.633181361      0.125799228
Al     -0.000000000      0.366818639      0.125799228
Al     -0.000000000     -0.000000000      0.084848841
Al     -0.000000000      0.500000000      0.584848841
Mg      0.500000000      0.000000000      0.787267854
Mg      0.500000000      0.500000000      0.287267854
Mg     -0.000000000     -0.000000000      0.454192556
Mg     -0.000000000      0.500000000      0.954192556
O       0.500000000      0.189714521      0.823724184
O       0.500000000      0.810285479      0.823724184
O       0.500000000      0.689714521      0.323724184
O       0.500000000      0.310285479      0.323724184
O      -0.000000000     -0.000000000      0.246246115
O      -0.000000000      0.500000000      0.746246115
O      -0.000000000     -0.000000000      0.598992505
O      -0.000000000      0.500000000      0.098992505
O       0.220027093      0.862734705      0.936034523
O       0.779972907      0.137265295      0.936034523
O       0.220027093      0.137265295      0.936034523
O       0.779972907      0.862734705      0.936034523
O       0.220027093      0.362734705      0.436034523
O       0.779972907      0.637265295      0.436034523
O       0.220027093      0.637265295      0.436034523
O       0.779972907      0.362734705      0.436034523
species
Mg  2.0
Al  3.0
O  -2.0
lennard 12 6
Mg O   1.50 0.00 0.00 6.0
Al O   1.50 0.00 0.00 6.0
O O    1.50 0.00 0.00 6.0
Mg Mg  1.50 0.00 0.00 6.0
Mg Al  1.50 0.00 0.00 6.0
Al Al  1.50 0.00 0.00 6.0
buck
Mg O 1428.5 0.2945 0.0 0.0 7.0
Al O 1114.9 0.3118 0.0 0.0 7.0
O O  2023.8 0.2674 0.0 0.0 7.0
maxcyc 850
switch rfo 0.010
