opti conjugate nosymmetry conp 
pressure 100 GPa
vectors
 5.089456743      0.000000000      0.000000000
 0.000000000      5.089456743      0.000000000
 0.000000000      0.000000000     10.974524101
frac
Al      0.778601659      0.961749547      0.301908387
Al      0.221398341      0.038250453      0.301908387
Al      0.038250453      0.778601659      0.301908387
Al      0.961749547      0.221398341      0.301908387
Al      0.278601659      0.461749547      0.801908387
Al      0.721398341      0.538250453      0.801908387
Al      0.538250453      0.278601659      0.801908387
Al      0.461749547      0.721398341      0.801908387
Mg     -0.000000000     -0.000000000      0.118735510
Mg      0.500000000      0.500000000      0.618735510
Mg     -0.000000000     -0.000000000      0.510051011
Mg      0.500000000      0.500000000      0.010051011
O       0.875853881      0.410957101      0.156930770
O       0.124146119      0.589042899      0.156930770
O       0.589042899      0.875853881      0.156930770
O       0.410957101      0.124146119      0.156930770
O       0.375853881      0.910957101      0.656930770
O       0.624146119      0.089042899      0.656930770
O       0.089042899      0.375853881      0.656930770
O       0.910957101      0.624146119      0.656930770
O      -0.000000000      0.500000000      0.673186100
O       0.500000000     -0.000000000      0.673186100
O       0.500000000     -0.000000000      0.173186100
O      -0.000000000      0.500000000      0.173186100
O      -0.000000000      0.500000000      0.991800497
O       0.500000000     -0.000000000      0.991800497
O       0.500000000     -0.000000000      0.491800497
O      -0.000000000      0.500000000      0.491800497
species
Mg  2.0
Al  3.0
O  -2.0
lennard 12 6
Mg O   1.50 0.00 0.00 6.0
Al O   1.50 0.00 0.00 6.0
O O    1.50 0.00 0.00 6.0
Mg Mg  1.50 0.00 0.00 6.0
Mg Al  1.50 0.00 0.00 6.0
Al Al  1.50 0.00 0.00 6.0
buck
Mg O 1428.5 0.2945 0.0 0.0 7.0
Al O 1114.9 0.3118 0.0 0.0 7.0
O O  2023.8 0.2674 0.0 0.0 7.0
maxcyc 850
switch rfo 0.010
