opti conjugate nosymmetry conp 
pressure 100 GPa
vectors
 6.489836278      0.000000000      0.000000000
 0.000000000      6.489836278      0.000000000
 0.000000000      0.000000000      6.171654237
frac
Al      0.126594184      0.163567203      0.026288691
Al      0.873405816      0.836432797      0.026288691
Al      0.163567203      0.873405816      0.973711309
Al      0.836432797      0.126594184      0.973711309
Al      0.373405816      0.663567203      0.473711309
Al      0.626594184      0.336432797      0.473711309
Al      0.336432797      0.373405816      0.526288691
Al      0.663567203      0.626594184      0.526288691
Mg     -0.000000000     -0.000000000      0.691829838
Mg     -0.000000000     -0.000000000      0.308170162
Mg      0.500000000      0.500000000      0.808170162
Mg      0.500000000      0.500000000      0.191829838
O       0.143409863      0.014015161      0.062617764
O       0.856590137      0.985984839      0.062617764
O       0.014015161      0.856590137      0.937382236
O       0.985984839      0.143409863      0.937382236
O       0.356590137      0.514015161      0.437382236
O       0.643409863      0.485984839      0.437382236
O       0.485984839      0.356590137      0.562617764
O       0.514015161      0.643409863      0.562617764
O       0.583735583      0.300168552      0.815577252
O       0.416264417      0.699831448      0.815577252
O       0.300168552      0.416264417      0.184422748
O       0.699831448      0.583735583      0.184422748
O       0.916264417      0.800168552      0.684422748
O       0.083735583      0.199831448      0.684422748
O       0.199831448      0.916264417      0.315577252
O       0.800168552      0.083735583      0.315577252
species
Mg  2.0
Al  3.0
O  -2.0
lennard 12 6
Mg O   1.50 0.00 0.00 6.0
Al O   1.50 0.00 0.00 6.0
O O    1.50 0.00 0.00 6.0
Mg Mg  1.50 0.00 0.00 6.0
Mg Al  1.50 0.00 0.00 6.0
Al Al  1.50 0.00 0.00 6.0
buck
Mg O 1428.5 0.2945 0.0 0.0 7.0
Al O 1114.9 0.3118 0.0 0.0 7.0
O O  2023.8 0.2674 0.0 0.0 7.0
maxcyc 850
switch rfo 0.010
