opti conjugate nosymmetry conp 
pressure 100 GPa
vectors
 8.430670043      0.000000000      0.000000000
 0.000000000      4.929622635      0.000000000
 0.000000000      0.000000000      8.697044785
frac
Al      0.933208941      0.176811040      0.942796993
Al      0.066791059      0.823188960      0.442796993
Al      0.433208941      0.323188960      0.942796993
Al      0.566791059      0.676811040      0.442796993
Al      0.228471933      0.967273244      0.951252291
Al      0.771528067      0.032726756      0.451252291
Al      0.728471933      0.532726756      0.951252291
Al      0.271528067      0.467273244      0.451252291
Mg      0.111795807      0.445753817      0.046047370
Mg      0.888204193      0.554246183      0.546047370
Mg      0.611795807      0.054246183      0.046047370
Mg      0.388204193      0.945753817      0.546047370
O       0.604130060      0.764917149      0.004999414
O       0.395869940      0.235082851      0.504999414
O       0.104130060      0.735082851      0.004999414
O       0.895869940      0.264917149      0.504999414
O       0.459382176      0.550233646      0.370982030
O       0.540617824      0.449766354      0.870982030
O       0.959382176      0.949766354      0.370982030
O       0.040617824      0.050233646      0.870982030
O       0.560117784      0.331922799      0.539780302
O       0.439882216      0.668077201      0.039780302
O       0.060117784      0.168077201      0.539780302
O       0.939882216      0.831922799      0.039780302
O       0.902656765      0.804285785      0.734229738
O       0.097343235      0.195714215      0.234229738
O       0.402656765      0.695714215      0.734229738
O       0.597343235      0.304285785      0.234229738
species
Mg  2.0
Al  3.0
O  -2.0
lennard 12 6
Mg O   1.50 0.00 0.00 6.0
Al O   1.50 0.00 0.00 6.0
O O    1.50 0.00 0.00 6.0
Mg Mg  1.50 0.00 0.00 6.0
Mg Al  1.50 0.00 0.00 6.0
Al Al  1.50 0.00 0.00 6.0
buck
Mg O 1428.5 0.2945 0.0 0.0 7.0
Al O 1114.9 0.3118 0.0 0.0 7.0
O O  2023.8 0.2674 0.0 0.0 7.0
maxcyc 850
switch rfo 0.010
