opti conjugate nosymmetry conp 
pressure 100 GPa
vectors
 3.611939637      0.000000000      0.000000000
 0.000000000      3.611939637      0.000000000
 0.000000000      0.000000000     16.684280277
frac
Al      0.180552089      0.461308394      0.234840157
Al      0.819447911      0.538691606      0.734840157
Al      0.538691606      0.180552089      0.984840157
Al      0.461308394      0.819447911      0.484840157
Al      0.699414368      0.050764718      0.448381143
Al      0.300585632      0.949235282      0.948381143
Al      0.949235282      0.699414368      0.198381143
Al      0.050764718      0.300585632      0.698381143
Mg      0.282605554      0.001934863      0.254623465
Mg      0.717394446      0.998065137      0.754623465
Mg      0.998065137      0.282605554      0.004623465
Mg      0.001934863      0.717394446      0.504623465
O       0.473028667      0.269548502      0.323094756
O       0.526971333      0.730451498      0.823094756
O       0.730451498      0.473028667      0.073094756
O       0.269548502      0.526971333      0.573094756
O       0.616380954      0.051713110      0.663248969
O       0.383619046      0.948286890      0.163248969
O       0.948286890      0.616380954      0.413248969
O       0.051713110      0.383619046      0.913248969
O       0.891594259      0.758398867      0.379033998
O       0.108405741      0.241601133      0.879033998
O       0.241601133      0.891594259      0.129033998
O       0.758398867      0.108405741      0.629033998
O       0.482730443      0.615134986      0.914360600
O       0.517269557      0.384865014      0.414360600
O       0.384865014      0.482730443      0.664360600
O       0.615134986      0.517269557      0.164360600
species
Mg  2.0
Al  3.0
O  -2.0
lennard 12 6
Mg O   1.50 0.00 0.00 6.0
Al O   1.50 0.00 0.00 6.0
O O    1.50 0.00 0.00 6.0
Mg Mg  1.50 0.00 0.00 6.0
Mg Al  1.50 0.00 0.00 6.0
Al Al  1.50 0.00 0.00 6.0
buck
Mg O 1428.5 0.2945 0.0 0.0 7.0
Al O 1114.9 0.3118 0.0 0.0 7.0
O O  2023.8 0.2674 0.0 0.0 7.0
maxcyc 850
switch rfo 0.010
