opti conjugate nosymmetry conp 
pressure 100 GPa
vectors
 9.587219844      0.000000000      0.000000000
 0.000000000      9.587219844      0.000000000
 0.000000000      0.000000000      4.755366203
frac
Al      0.093545394      0.796410149      0.839898247
Al      0.906454606      0.203589851      0.839898247
Al      0.796410149      0.906454606      0.160101753
Al      0.203589851      0.093545394      0.160101753
Al      0.593545394      0.703589851      0.839898247
Al      0.406454606      0.296410149      0.839898247
Al      0.296410149      0.593545394      0.160101753
Al      0.703589851      0.406454606      0.160101753
Mg     -0.000000000     -0.000000000      0.500000000
Mg      0.500000000      0.500000000      0.500000000
Mg     -0.000000000      0.500000000     -0.000000000
Mg      0.500000000      0.000000000     -0.000000000
O      -0.000000000      0.500000000      0.703427295
O       0.500000000      0.000000000      0.296572705
O       0.500000000      0.000000000      0.703427295
O      -0.000000000      0.500000000      0.296572705
O       0.157184410      0.657184410      1.000000000
O       0.842815590      0.342815590      0.000000000
O       0.657184410      0.842815590      1.000000000
O       0.342815590      0.157184410      1.000000000
O       0.590041462      0.160165170      0.528366745
O       0.409958538      0.839834830      0.528366745
O       0.160165170      0.409958538      0.471633255
O       0.839834830      0.590041462      0.471633255
O       0.090041462      0.339834830      0.528366745
O       0.909958538      0.660165170      0.528366745
O       0.660165170      0.090041462      0.471633255
O       0.339834830      0.909958538      0.471633255
species
Mg  2.0
Al  3.0
O  -2.0
lennard 12 6
Mg O   1.50 0.00 0.00 6.0
Al O   1.50 0.00 0.00 6.0
O O    1.50 0.00 0.00 6.0
Mg Mg  1.50 0.00 0.00 6.0
Mg Al  1.50 0.00 0.00 6.0
Al Al  1.50 0.00 0.00 6.0
buck
Mg O 1428.5 0.2945 0.0 0.0 7.0
Al O 1114.9 0.3118 0.0 0.0 7.0
O O  2023.8 0.2674 0.0 0.0 7.0
maxcyc 850
switch rfo 0.010
