opti conjugate nosymmetry conp 
pressure 100 GPa
vectors
 5.754251269      0.000000000      0.000000000
 0.000000000      5.754251269      0.000000000
 0.000000000      0.000000000      5.754251269
frac
Al      0.147369821      0.147369821      0.147369821
Al      0.852630179      0.852630179      0.147369821
Al      0.852630179      0.147369821      0.852630179
Al      0.147369821      0.852630179      0.852630179
Al      0.852630179      0.852630179      0.852630179
Al      0.147369821      0.147369821      0.852630179
Al      0.147369821      0.852630179      0.147369821
Al      0.852630179      0.147369821      0.147369821
Mg      0.500000000      0.500000000      0.500000000
Mg     -0.000000000      0.500000000      0.500000000
Mg      0.500000000      1.000000000      0.500000000
Mg      0.500000000      0.500000000      1.000000000
O      -0.000000000      0.742389712      0.220628697
O      -0.000000000      0.257610288      0.220628697
O      -0.000000000      0.742389712      0.779371303
O      -0.000000000      0.257610288      0.779371303
O       0.220628697     -0.000000000      0.742389712
O       0.220628697     -0.000000000      0.257610288
O       0.779371303     -0.000000000      0.742389712
O       0.779371303     -0.000000000      0.257610288
O       0.742389712      0.220628697      1.000000000
O       0.257610288      0.220628697      0.000000000
O       0.742389712      0.779371303      1.000000000
O       0.257610288      0.779371303      0.000000000
O      -0.000000000     -0.000000000     -0.000000000
O       0.500000000      1.000000000      1.000000000
O      -0.000000000      0.500000000      1.000000000
O      -0.000000000     -0.000000000      0.500000000
species
Mg  2.0
Al  3.0
O  -2.0
lennard 12 6
Mg O   1.50 0.00 0.00 6.0
Al O   1.50 0.00 0.00 6.0
O O    1.50 0.00 0.00 6.0
Mg Mg  1.50 0.00 0.00 6.0
Mg Al  1.50 0.00 0.00 6.0
Al Al  1.50 0.00 0.00 6.0
buck
Mg O 1428.5 0.2945 0.0 0.0 7.0
Al O 1114.9 0.3118 0.0 0.0 7.0
O O  2023.8 0.2674 0.0 0.0 7.0
maxcyc 850
switch rfo 0.010
