opti conjugate nosymmetry conp 
pressure 100 GPa
vectors
 6.772387628     -3.910039820      0.000000000
 0.000000000      7.820079641      0.000000000
 0.000000000      0.000000000      6.553344902
frac
Al      0.881982145      0.118017855      0.757534416
Al      0.881982145      0.763964289      0.757534416
Al      0.236035711      0.118017855      0.757534416
Al      0.118017855      0.881982145      0.257534416
Al      0.118017855      0.236035711      0.257534416
Al      0.763964289      0.881982145      0.257534416
Al     -0.000000000     -0.000000000      0.137454612
Al     -0.000000000     -0.000000000      0.637454612
Mg     -0.000000000     -0.000000000      0.348609226
Mg     -0.000000000     -0.000000000      0.848609226
Mg      0.333333333      0.666666667      0.280511377
Mg      0.666666667      0.333333333      0.780511377
O       0.574142709      0.669811843      0.423134442
O       0.330188157      0.904330866      0.423134442
O       0.095669134      0.425857291      0.423134442
O       0.425857291      0.330188157      0.923134442
O       0.669811843      0.095669134      0.923134442
O       0.904330866      0.574142709      0.923134442
O       0.330188157      0.425857291      0.423134442
O       0.095669134      0.669811843      0.423134442
O       0.574142709      0.904330866      0.423134442
O       0.669811843      0.574142709      0.923134442
O       0.904330866      0.330188157      0.923134442
O       0.425857291      0.095669134      0.923134442
O       0.333333333      0.666666667      0.729521107
O       0.666666667      0.333333333      0.229521107
O       0.333333333      0.666666667      0.450726273
O       0.666666667      0.333333333      0.950726273
species
Mg  2.0
Al  3.0
O  -2.0
lennard 12 6
Mg O   1.50 0.00 0.00 6.0
Al O   1.50 0.00 0.00 6.0
O O    1.50 0.00 0.00 6.0
Mg Mg  1.50 0.00 0.00 6.0
Mg Al  1.50 0.00 0.00 6.0
Al Al  1.50 0.00 0.00 6.0
buck
Mg O 1428.5 0.2945 0.0 0.0 7.0
Al O 1114.9 0.3118 0.0 0.0 7.0
O O  2023.8 0.2674 0.0 0.0 7.0
maxcyc 850
switch rfo 0.010
