opti conjugate nosymmetry conp 
pressure 100 GPa
vectors
10.541252685      0.000000000      0.000000000
 0.000000000      3.714763424      0.000000000
 0.000000000      0.000000000      6.739147709
frac
Al      0.001034455      0.790381059      0.466966989
Al      0.498965545      0.209618941      0.466966989
Al      0.498965545      0.290381059      0.033033011
Al      0.001034455      0.709618941      0.033033011
Al      0.998965545      0.209618941      0.533033011
Al      0.501034455      0.790381059      0.533033011
Al      0.501034455      0.709618941      0.966966989
Al      0.998965545      0.290381059      0.966966989
Mg      0.250000000     -0.000000000      0.507170002
Mg      0.250000000      0.500000000      0.992829998
Mg      0.750000000     -0.000000000      0.492829998
Mg      0.750000000      0.500000000      0.007170002
O      -0.000000000     -0.000000000     -0.000000000
O       0.500000000     -0.000000000     -0.000000000
O       0.500000000      0.500000000      0.500000000
O      -0.000000000      0.500000000      0.500000000
O       0.585029789      0.038643005      0.276767975
O       0.914970211      0.961356995      0.276767975
O       0.914970211      0.538643005      0.223232025
O       0.585029789      0.461356995      0.223232025
O       0.414970211      0.961356995      0.723232025
O       0.085029789      0.038643005      0.723232025
O       0.085029789      0.461356995      0.776767975
O       0.414970211      0.538643005      0.776767975
O       0.165708702      0.250000000      0.250000000
O       0.334291298      0.750000000      0.250000000
O       0.834291298      0.750000000      0.750000000
O       0.665708702      0.250000000      0.750000000
species
Mg  2.0
Al  3.0
O  -2.0
lennard 12 6
Mg O   1.50 0.00 0.00 6.0
Al O   1.50 0.00 0.00 6.0
O O    1.50 0.00 0.00 6.0
Mg Mg  1.50 0.00 0.00 6.0
Mg Al  1.50 0.00 0.00 6.0
Al Al  1.50 0.00 0.00 6.0
buck
Mg O 1428.5 0.2945 0.0 0.0 7.0
Al O 1114.9 0.3118 0.0 0.0 7.0
O O  2023.8 0.2674 0.0 0.0 7.0
maxcyc 850
switch rfo 0.010
