opti conjugate nosymmetry conp 
pressure 100 GPa
vectors
 2.516140625     -1.452694467      0.000000000
 0.000000000      2.905388934      0.000000000
 0.000000000      0.000000000     21.392056670
frac
Al      0.333333333      0.666666667      0.500000000
Al      0.666666667      0.333333333      0.500000000
Al     -0.000000000     -0.000000000      0.360251694
Al     -0.000000000     -0.000000000      0.639748306
Al      0.333333333      0.666666667      0.200875537
Al      0.333333333      0.666666667      0.799124463
Al      0.666666667      0.333333333      0.799124463
Al      0.666666667      0.333333333      0.200875537
Mg      0.333333333      0.666666667     -0.000000000
Mg      0.666666667      0.333333333      0.000000000
Mg     -0.000000000     -0.000000000      0.500000000
Mg     -0.000000000     -0.000000000     -0.000000000
O       0.151203528      0.782237093      0.407159718
O       0.217762907      0.368966434      0.407159718
O       0.631033566      0.848796472      0.407159718
O       0.151203528      0.782237093      0.592840282
O       0.217762907      0.368966434      0.592840282
O       0.631033566      0.848796472      0.592840282
O       0.782237093      0.151203528      0.592840282
O       0.368966434      0.217762907      0.592840282
O       0.848796472      0.631033566      0.592840282
O       0.782237093      0.151203528      0.407159718
O       0.368966434      0.217762907      0.407159718
O       0.848796472      0.631033566      0.407159718
O       0.333333333      0.666666667      0.338457213
O       0.333333333      0.666666667      0.661542787
O       0.666666667      0.333333333      0.661542787
O       0.666666667      0.333333333      0.338457213
species
Mg  2.0
Al  3.0
O  -2.0
lennard 12 6
Mg O   1.50 0.00 0.00 6.0
Al O   1.50 0.00 0.00 6.0
O O    1.50 0.00 0.00 6.0
Mg Mg  1.50 0.00 0.00 6.0
Mg Al  1.50 0.00 0.00 6.0
Al Al  1.50 0.00 0.00 6.0
buck
Mg O 1428.5 0.2945 0.0 0.0 7.0
Al O 1114.9 0.3118 0.0 0.0 7.0
O O  2023.8 0.2674 0.0 0.0 7.0
maxcyc 850
switch rfo 0.010
