opti conjugate nosymmetry conp 
pressure 100 GPa
vectors
 5.388131558      0.016877652     -0.651847400
 0.023088654      6.869908400     -0.105149401
-0.748304163     -0.004915303      5.533803893
frac
Al      0.628764974      1.000167749      0.905742623
Al      0.367776903      0.386080714      0.963135090
Al      0.245081818      0.999488182      0.531909472
Al      0.015002895      1.011642535      0.908888398
Al      0.130042357      0.387775923      0.102608881
Al      0.804546563      0.962930001      0.576413671
Al      1.115632265      0.110336185      0.224570052
Al      0.747361673      0.352820283      0.417954863
Mg      0.446276700      1.008887203      0.117472850
Mg      0.513799647      0.388855815      0.484701852
Mg      1.217845220      0.795381066      0.602622692
Mg      1.010808539      0.808279236      0.146737870
O       0.429008302      0.635138071      0.738904144
O       0.623776957      0.765907640      0.163665232
O       0.135525839      0.163882289      0.398661340
O       0.014823737      0.012887591      0.163878987
O       0.124555167      0.611672027      0.042131588
O       0.437490525      0.264678040      0.091157571
O       0.293432345      1.200193777      0.857750413
O       0.245256034      0.762669197      0.276913941
O       0.706370215      0.169444849      0.041595348
O       0.575553694      1.146946665      0.569751433
O       0.780698727      0.399701711      0.019321652
O       1.103464321      0.450986729      0.181342219
O       0.883456571      0.070433285      0.784814428
O       0.817092593      1.059551979      0.181870214
O       1.098450357      0.621319415      0.826806685
O       0.962120699      1.161458512      0.412975495
species
Mg  2.0
Al  3.0
O  -2.0
lennard 12 6
Mg O   1.50 0.00 0.00 6.0
Al O   1.50 0.00 0.00 6.0
O O    1.50 0.00 0.00 6.0
Mg Mg  1.50 0.00 0.00 6.0
Mg Al  1.50 0.00 0.00 6.0
Al Al  1.50 0.00 0.00 6.0
buck
Mg O 1428.5 0.2945 0.0 0.0 7.0
Al O 1114.9 0.3118 0.0 0.0 7.0
O O  2023.8 0.2674 0.0 0.0 7.0
maxcyc 850
switch rfo 0.010
