opti conjugate nosymmetry conp 
pressure 100 GPa
vectors
 7.217062690     -0.082103177     -0.419023492
 0.072543601      4.927770123     -0.043956405
-0.379091727      0.008347680      5.686432967
frac
Al      0.857046570      0.260397829      0.331652717
Al      0.143722955      0.753300628      0.375486289
Al      0.549954986      0.259023070      0.028601549
Al      0.646161215      0.762571521      0.378027149
Al      0.050768428      0.259023070      0.028601549
Al      0.299419685      0.259266116      0.640540817
Al      0.464642449      0.472914969      0.688564560
Al      0.149435090      0.594944118      0.684508170
Mg      0.306293042      0.760895252      0.040611978
Mg      0.360853134      0.259895648      0.337341447
Mg      0.793633904      0.755524005      0.016608093
Mg      0.615647381      0.244431290      0.814762916
O       0.292339779      0.458897368      0.542742739
O       0.055199207      0.078111871      0.267818737
O       0.583452401      0.435443587      0.268251032
O       0.299193610      0.159557153      0.019348627
O       0.807567199      0.059153763      0.512833477
O       0.650187654      0.951855077      0.169615762
O       0.143863726      0.561945448      0.169444042
O       0.410751823      0.872450469      0.406063462
O       0.800715364      0.358489985      0.037857466
O       0.917116684      0.600949889      0.416801964
O       0.760348586      0.972039628      0.690888773
O       0.166804785      0.889449212      0.895019136
O       0.434872959      0.975194487      0.721030656
O       0.810667589      0.477505488      0.747081206
O       0.629715457      0.716115665      0.815033475
O       0.031264652      0.349619882      0.867741585
species
Mg  2.0
Al  3.0
O  -2.0
lennard 12 6
Mg O   1.50 0.00 0.00 6.0
Al O   1.50 0.00 0.00 6.0
O O    1.50 0.00 0.00 6.0
Mg Mg  1.50 0.00 0.00 6.0
Mg Al  1.50 0.00 0.00 6.0
Al Al  1.50 0.00 0.00 6.0
buck
Mg O 1428.5 0.2945 0.0 0.0 7.0
Al O 1114.9 0.3118 0.0 0.0 7.0
O O  2023.8 0.2674 0.0 0.0 7.0
maxcyc 850
switch rfo 0.010
