opti conjugate nosymmetry conp 
pressure 100 GPa
vectors
 3.373267756     -1.301557419      0.095717585
-0.211118827      6.039752242      0.243036817
 0.130073138      0.289665102     10.042542859
frac
Al      0.476657927      0.285775601      0.037847398
Al      0.033994883      0.286498781      0.038468284
Al      0.026377024      0.277927356      0.616167744
Al      0.473335566      0.288808868      0.613235882
Al      0.552509839      0.804325249      0.310959503
Al      0.813585163      0.665878410      0.632844266
Al      0.547018826      0.875362401      0.682154867
Al      0.131439918      0.874975460      0.533834344
Mg      0.705603750      0.313732359      0.324221591
Mg      0.257480825      0.301995128      0.318886244
Mg      0.323008955      0.586103492      0.525666762
Mg      0.878560230      0.685686265      0.394419707
O       0.082909646      0.443221720      0.768934092
O       0.627805348      0.038005733      0.885681954
O       0.746344705      0.517321494      0.090761449
O       0.206850175      0.040834410      0.880588556
O       0.751946019      0.514788138      0.553485862
O       0.872166571      0.098542979      0.456720202
O       0.430400163      0.107676581      0.452203214
O       0.312139226      0.518446738      0.553756277
O       0.623056195      0.036957877      0.650464118
O       0.868018734      0.121900913      0.195009760
O       0.501637458      0.452053775      0.766748539
O       0.319936768      0.514028487      0.093061750
O       0.195894834      0.029128313      0.647487781
O       0.446173151      0.120248183      0.199537422
O       0.474130579      0.689014853      0.199488280
O       0.090749666      0.729920369      0.092229829
species
Mg  2.0
Al  3.0
O  -2.0
lennard 12 6
Mg O   1.50 0.00 0.00 6.0
Al O   1.50 0.00 0.00 6.0
O O    1.50 0.00 0.00 6.0
Mg Mg  1.50 0.00 0.00 6.0
Mg Al  1.50 0.00 0.00 6.0
Al Al  1.50 0.00 0.00 6.0
buck
Mg O 1428.5 0.2945 0.0 0.0 7.0
Al O 1114.9 0.3118 0.0 0.0 7.0
O O  2023.8 0.2674 0.0 0.0 7.0
maxcyc 850
switch rfo 0.010
