opti conjugate nosymmetry conp 
pressure 100 GPa
vectors
 5.000655325     -0.592958347      0.011930709
-0.094081757      4.907662767      0.348496845
-0.066900175      0.111962059      8.235897712
frac
Al      0.289317031      0.987491243      0.793893808
Al      0.084221504      0.639866952      0.094534741
Al      0.285449567      0.466059500      0.801082201
Al      0.448400376      0.291047376      0.429369701
Al      0.572801455      0.356435213      0.736841162
Al      1.040449585      0.133339501      0.553319158
Al      0.540952244      0.158789874      0.251760241
Al      0.576697080      0.352878565      0.062171075
Mg      0.083396487      0.121897986      0.076685791
Mg      0.449182630      0.812717968      0.429387432
Mg      0.670219196      0.728928924      0.398752025
Mg      0.708644556      0.897967755      0.577209195
O       0.351426955      0.906228612      0.034123872
O       0.264865856      0.009562139      0.557434068
O       0.053871092      0.185903052      0.828653004
O       0.303712590      0.498732685      0.573673661
O       0.349479664      0.411587503      0.019033671
O       0.061294161      0.722169460      0.845234703
O       0.066434091      0.838557382      0.284481658
O       0.105499856      0.318743340      0.292849690
O       0.892917524      0.624377026      0.124215290
O       0.753924546      0.062356730      0.013291673
O       1.035586051      0.160727778      0.246451343
O       0.845146836      0.385659180      0.397958298
O       0.964153745      0.862994743      0.926452231
O       0.899485328      0.621406547      0.666781451
O       0.748355941      0.061128069      0.780493021
O       0.605986756      0.547847552      0.916841980
species
Mg  2.0
Al  3.0
O  -2.0
lennard 12 6
Mg O   1.50 0.00 0.00 6.0
Al O   1.50 0.00 0.00 6.0
O O    1.50 0.00 0.00 6.0
Mg Mg  1.50 0.00 0.00 6.0
Mg Al  1.50 0.00 0.00 6.0
Al Al  1.50 0.00 0.00 6.0
buck
Mg O 1428.5 0.2945 0.0 0.0 7.0
Al O 1114.9 0.3118 0.0 0.0 7.0
O O  2023.8 0.2674 0.0 0.0 7.0
maxcyc 850
switch rfo 0.010
