opti conjugate nosymmetry conp 
pressure 100 GPa
vectors
 5.265161896     -0.622034161     -0.229175619
-0.621758177      4.692466948      0.027850387
-0.486033246      0.056880428      8.305936384
frac
Al      0.968241097      0.324673201      0.015481187
Al      0.561324346      0.803153075      0.174961624
Al      0.469105821      0.323677546      0.009397856
Al      0.052525172      0.810967762      0.172632073
Al      0.775273733      0.319216168      0.356208965
Al      0.168310651      0.066949564      0.531940924
Al      0.453026236      0.307597961      0.004268793
Al      0.673769563      0.078413648      0.513417928
Mg      0.264501316      0.302997632      0.346152047
Mg      0.391850666      0.195510499      0.806009001
Mg      0.143380133      0.831764547      0.845283172
Mg      0.653552347      0.874825620      0.833804034
O       0.350314327      0.907486072      0.299186642
O       0.572193245      0.574616139      0.484335728
O       0.154740394      0.080715656      0.050562969
O       0.287756684      0.623057964      0.019337343
O       0.795638490      0.626512646      0.001095378
O       0.664809229      0.071484771      0.044227713
O       0.002345969      0.446179661      0.222086615
O       0.867017515      0.929962581      0.299208723
O       0.554803408      0.433605503      0.216448920
O       0.779558905      0.610433061      0.995966315
O       0.139324244      0.323147040      0.671824422
O       0.648464671      0.375361135      0.674439020
O       0.350138122      0.671457074      0.701294605
O       0.359493464      0.820417894      0.506574807
O       0.952161512      0.308593616      0.010352124
O       0.867155464      0.825357026      0.505569116
species
Mg  2.0
Al  3.0
O  -2.0
lennard 12 6
Mg O   1.50 0.00 0.00 6.0
Al O   1.50 0.00 0.00 6.0
O O    1.50 0.00 0.00 6.0
Mg Mg  1.50 0.00 0.00 6.0
Mg Al  1.50 0.00 0.00 6.0
Al Al  1.50 0.00 0.00 6.0
buck
Mg O 1428.5 0.2945 0.0 0.0 7.0
Al O 1114.9 0.3118 0.0 0.0 7.0
O O  2023.8 0.2674 0.0 0.0 7.0
maxcyc 850
switch rfo 0.010
