opti conjugate nosymmetry conp 
pressure 100 GPa
vectors
 5.629007848     -0.624587911      0.042780755
-0.630751821      5.142558922      0.062596494
-0.005044161      0.382632594      7.061414625
frac
Al      0.226069907      0.025606801      0.699402546
Al      0.695356664      0.026366280      0.700054595
Al      0.687356450      0.017364637      0.372582011
Al      0.222580790      0.028792314      0.369502993
Al      0.204741500      0.740213123      0.084584144
Al      0.423717013      0.743224881      0.276142761
Al      0.185789100      0.743225815      0.743225815
Al      0.595232122      0.668012214      0.483855944
Mg      0.466506996      0.054966767      0.065982475
Mg      0.930059829      0.042640420      0.060379336
Mg      0.190009671      0.452712652      0.101925104
Mg      0.913520901      0.546147199      0.758497593
O       0.746726561      0.190955467      0.533016019
O       0.509292823      0.268774462      0.754972462
O       0.515175279      0.266113952      0.306753996
O       0.773427884      0.339787110      0.081586817
O       0.053293672      0.269956185      0.307037983
O       0.252303213      0.200230821      0.530720768
O       0.061482588      0.265316173      0.757388220
O       0.309833013      0.362416395      0.066693377
O       0.889196101      0.908009309      0.103882186
O       0.595232122      0.818438481      0.068428643
O       0.656214607      0.910047664      0.576568380
O       0.373416738      0.526660455      0.797151596
O       0.425865599      0.446618141      0.570159053
O       0.863326187      0.470318916      0.208297877
O       0.425507813      0.462914701      0.260915823
O       0.889196101      0.578441386      0.448401467
species
Mg  2.0
Al  3.0
O  -2.0
lennard 12 6
Mg O   1.50 0.00 0.00 6.0
Al O   1.50 0.00 0.00 6.0
O O    1.50 0.00 0.00 6.0
Mg Mg  1.50 0.00 0.00 6.0
Mg Al  1.50 0.00 0.00 6.0
Al Al  1.50 0.00 0.00 6.0
buck
Mg O 1428.5 0.2945 0.0 0.0 7.0
Al O 1114.9 0.3118 0.0 0.0 7.0
O O  2023.8 0.2674 0.0 0.0 7.0
maxcyc 850
switch rfo 0.010
