opti conjugate nosymmetry conp 
pressure 100 GPa
vectors
 6.650951093      0.134203105     -0.036701126
-0.011955649      6.716509676     -0.000936245
-0.088410940     -0.001036810      4.510718995
frac
Al      0.976580529      0.554946281      0.032760337
Al      0.080544957      0.770433650      0.549672742
Al      0.395391519      0.927827588      0.009530007
Al      0.662273881      0.707049074      0.532616196
Al      0.537427613      0.765457388      0.701211300
Al      0.423800640      0.228915635      0.701211300
Al      0.249073158      0.895084555      0.994642107
Al      0.983826248      0.084899795      0.994642107
Mg      0.941699823      1.122223150      0.428463518
Mg      0.352054136      0.356813584      0.474607273
Mg      0.194009106      0.013524512      0.701211300
Mg      0.835935947      0.907183294      0.994642107
O       0.106337525      1.072488976      0.175517946
O       0.627569232      0.971423190      0.508712149
O       0.899640624      0.777278804      0.229734569
O       1.011468279      0.194617944      0.263186855
O       0.044810953      0.512992718      0.495473725
O       0.454462661      0.145681901      0.263933343
O       0.288505239      0.734538846      0.219834214
O       0.679898509      0.478128443      0.319991538
O       1.010662256      0.399628984      0.701211300
O       1.124289228      1.036810462      0.701211300
O       0.154290312      0.300859001      0.994642107
O       1.160030274      0.667371685      0.994642107
O       0.741151927      0.327685619      0.994642107
O       0.573169832      1.134897338      0.994642107
O       0.780870722      0.615021282      0.701211300
O       0.396965806      0.543645998      0.994642107
species
Mg  2.0
Al  3.0
O  -2.0
lennard 12 6
Mg O   1.50 0.00 0.00 6.0
Al O   1.50 0.00 0.00 6.0
O O    1.50 0.00 0.00 6.0
Mg Mg  1.50 0.00 0.00 6.0
Mg Al  1.50 0.00 0.00 6.0
Al Al  1.50 0.00 0.00 6.0
buck
Mg O 1428.5 0.2945 0.0 0.0 7.0
Al O 1114.9 0.3118 0.0 0.0 7.0
O O  2023.8 0.2674 0.0 0.0 7.0
maxcyc 850
switch rfo 0.010
