opti conjugate nosymmetry conp 
pressure 100 GPa
vectors
 7.009821698      0.151548194      0.038836737
-0.015511745      4.423207223     -0.850252851
-0.099718017     -1.486562266      6.782512016
frac
Al      0.086969717      0.356605737      0.097582451
Al      0.463665947      0.286570901      0.385502550
Al      1.039506143      0.876771400      0.385502550
Al      0.662811065      0.806736564      0.097582451
Al      0.161482616      0.022182266      0.071842204
Al      0.470954110      0.084286631      0.746151595
Al      0.737325117      0.662659373      0.725771459
Al      0.737322813      0.530375060      0.050171034
Mg      0.259864584      0.928138649      0.097582451
Mg      0.835705933      0.235203652      0.097582451
Mg      0.161483768      0.721324821      0.740024655
Mg      0.737323965      0.211674000      0.605043107
O       0.224794764      0.138958873      0.385502550
O       0.113301737      0.665424228      0.385502550
O       1.093537229      0.011766139      0.097582451
O       1.000533279      0.594831978      0.097582451
O       0.800634961      1.024382276      0.385502550
O       0.424693082      0.568509171      0.097582451
O       0.517695880      1.151575011      0.097582451
O       0.689141934      0.497916921      0.385502550
O       1.026194200      0.782394977      0.587427003
O       1.023856288      0.227966822      0.010357443
O       1.026085942      0.799484763      0.976790566
O       0.448453730      0.782394977      0.587427003
O       0.448560837      0.799484763      0.976790566
O       0.161482616      0.511262924      0.028198124
O       0.450788186      0.227966822      0.010356291
O       0.737322813      0.003923525      0.049917664
species
Mg  2.0
Al  3.0
O  -2.0
lennard 12 6
Mg O   1.50 0.00 0.00 6.0
Al O   1.50 0.00 0.00 6.0
O O    1.50 0.00 0.00 6.0
Mg Mg  1.50 0.00 0.00 6.0
Mg Al  1.50 0.00 0.00 6.0
Al Al  1.50 0.00 0.00 6.0
buck
Mg O 1428.5 0.2945 0.0 0.0 7.0
Al O 1114.9 0.3118 0.0 0.0 7.0
O O  2023.8 0.2674 0.0 0.0 7.0
maxcyc 850
switch rfo 0.010
