opti conjugate nosymmetry conp 
pressure 100 GPa
vectors
 8.371817111      0.089025063     -0.065687106
-0.022579826      4.593463519      0.398180020
 0.006496242      0.488716283      5.281415002
frac
Al      0.271572928      0.130539049      0.702883958
Al      0.271572928      0.130539049      0.203832709
Al      0.943213065      0.069843438      0.952409582
Al      0.943213065      0.069843438      0.453358333
Al      0.861534076      0.731818679      0.932693794
Al      0.291058613      0.992101852      0.157226044
Al      0.105761883      0.501051394      0.501247022
Al      0.620389519      0.951816439      0.388173986
Mg      0.593999958      0.175056416      0.453358333
Mg      0.594000956      0.175056416      0.952409582
Mg      0.633347883      0.958623498      0.885105265
Mg      0.601948577      0.673365805      0.735971784
O       0.563606739      0.489217162      0.702883958
O       0.563606739      0.489217162      0.203832709
O       0.318398906      0.378985724      0.453358333
O       0.318398906      0.378985724      0.952409582
O       0.064555491      0.258465846      0.702883958
O       0.817449156      0.368697283      0.453358333
O       0.064555491      0.258465846      0.203832709
O       0.817450154      0.368697283      0.952409582
O       0.369588319      0.727045753      0.470683127
O       0.615796251      0.644634426      0.208976660
O       0.291318120      0.984106053      0.659947315
O       0.871073940      0.726616569      0.432820109
O       0.935894708      0.977649328      0.619815610
O       0.365012020      0.729423233      0.968683373
O       0.118937834      0.800924302      0.666728423
O       0.133041022      0.788977015      0.204024075
species
Mg  2.0
Al  3.0
O  -2.0
lennard 12 6
Mg O   1.50 0.00 0.00 6.0
Al O   1.50 0.00 0.00 6.0
O O    1.50 0.00 0.00 6.0
Mg Mg  1.50 0.00 0.00 6.0
Mg Al  1.50 0.00 0.00 6.0
Al Al  1.50 0.00 0.00 6.0
buck
Mg O 1428.5 0.2945 0.0 0.0 7.0
Al O 1114.9 0.3118 0.0 0.0 7.0
O O  2023.8 0.2674 0.0 0.0 7.0
maxcyc 850
switch rfo 0.010
