opti conjugate nosymmetry conp 
pressure 100 GPa
vectors
 3.469349617     -0.902237694      0.097249172
 0.538354024      6.463379208     -0.358657193
 0.124212243     -0.893743558      8.847064403
frac
Al      0.027805805      0.040757162      0.521197989
Al      0.503503922      0.034046964      0.522389137
Al      0.740569982      0.065040599      0.855374965
Al      0.266441668      0.065040599      0.855374965
Al      0.925210966      0.657446204      0.926794089
Al      0.245950207      0.596575873      0.672853114
Al      0.720241209      0.630147792      0.778668355
Al      0.017335400      0.812591339      0.447720418
Mg      0.740658462      0.079158368      0.225629624
Mg      0.266352237      0.079158368      0.225629624
Mg      0.077550219      0.849640611      0.090658557
Mg      0.055856482      0.896663370      0.685050014
O       0.276587358      0.237213824      0.502454532
O       0.027807707      0.151942083      0.740698420
O       0.503505825      0.132675357      0.740966714
O       0.730421438      0.237214776      0.502455483
O       0.759157410      0.439733735      0.035100160
O       0.503504874      0.388429693      0.304151209
O       0.247854240      0.439734687      0.035099208
O       0.503505825      0.014590911      0.030038732
O       0.027806756      0.373346257      0.286039479
O       0.383863654      0.613695296      0.090117212
O       0.461822013      0.813005196      0.606358129
O       0.561356135      0.861599662      0.308591086
O       0.475636286      0.843069317      0.834354528
O       0.222229996      0.503625412      0.438984697
O       0.816425466      0.610135172      0.298608086
O       0.467694982      0.737026693      0.209342383
species
Mg  2.0
Al  3.0
O  -2.0
lennard 12 6
Mg O   1.50 0.00 0.00 6.0
Al O   1.50 0.00 0.00 6.0
O O    1.50 0.00 0.00 6.0
Mg Mg  1.50 0.00 0.00 6.0
Mg Al  1.50 0.00 0.00 6.0
Al Al  1.50 0.00 0.00 6.0
buck
Mg O 1428.5 0.2945 0.0 0.0 7.0
Al O 1114.9 0.3118 0.0 0.0 7.0
O O  2023.8 0.2674 0.0 0.0 7.0
maxcyc 850
switch rfo 0.010
