opti conjugate nosymmetry conp 
pressure 100 GPa
vectors
 5.280923605      0.016744781      0.042859348
-0.008105046      5.563370810     -0.294894426
-0.056491332     -0.633776014      6.891030580
frac
Al      0.460526351      0.037514434      0.037514434
Al      0.197696674      0.544499464      0.037515448
Al      0.703064419      0.037513420      0.544500478
Al      0.200028810      0.222554200      0.356648967
Al      0.953415141      0.544500478      0.544500478
Al      0.957997281      0.859831601      0.226614144
Al      0.251466861      0.560430240      0.716535299
Al      0.770844658      0.728881423      0.011567715
Mg      0.450056075      0.725573585      0.363605829
Mg      0.702940714      0.365638843      0.224489873
Mg      0.240556521      0.728882437      0.011568729
Mg      0.242653415      0.259095987      0.012144665
O       0.454467868      0.062580838      0.339324240
O       0.674863827      0.840723297      0.111153142
O       0.973985593      0.547772565      0.245436508
O       0.383863977      0.462861529      0.262973155
O       0.143099347      0.779567599      0.485968939
O       0.729342519      0.758414113      0.527924062
O       0.143099347      0.309434370      0.603033030
O       0.729343533      0.330585828      0.561076893
O       0.199640459      0.240242943      0.020987703
O       0.199642487      0.848756998      0.054041165
O       0.935620945      0.095409198      0.319535560
O       1.012687140      0.890043161      0.800221457
O       1.012687140      0.306671557      0.761795971
O       0.759936346      0.560430240      0.716535299
O       0.505701096      0.873967647      0.780918470
O       0.757973296      0.057249633      0.746088529
species
Mg  2.0
Al  3.0
O  -2.0
lennard 12 6
Mg O   1.50 0.00 0.00 6.0
Al O   1.50 0.00 0.00 6.0
O O    1.50 0.00 0.00 6.0
Mg Mg  1.50 0.00 0.00 6.0
Mg Al  1.50 0.00 0.00 6.0
Al Al  1.50 0.00 0.00 6.0
buck
Mg O 1428.5 0.2945 0.0 0.0 7.0
Al O 1114.9 0.3118 0.0 0.0 7.0
O O  2023.8 0.2674 0.0 0.0 7.0
maxcyc 850
switch rfo 0.010
