opti conjugate nosymmetry conp 
pressure 100 GPa
vectors
 6.150901755      0.017683535     -0.356286287
 0.015511873      6.576707115     -0.071321161
-0.287438129     -0.048034860      4.997936286
frac
Al      0.013147730      0.878759680      0.018574916
Al      0.247680093      0.350120622      0.754253801
Al      0.013148787      0.878759680      0.489937973
Al      0.247680093      0.350120622      0.225614743
Al      0.981866498      0.949971653      0.955166050
Al      0.785338978      0.924025043      0.348306542
Al      0.854790381      0.161593715      0.590818167
Al      0.868614265      0.039157982      0.114222464
Mg      0.366201790      0.904524439      0.018567515
Mg      0.366202848      0.904524439      0.489929514
Mg      0.567878450      0.235031049      0.252463415
Mg      0.674054335      0.498242023      0.078907331
O       0.406198542      0.635064963      0.754251686
O       0.386564926      0.230447552      0.018573858
O       0.406198542      0.635063906      0.225613686
O       0.386564926      0.230447552      0.489936915
O       0.111174132      0.509992384      0.018572801
O       0.149657921      1.038627212      0.225617915
O       0.149656864      1.038627212      0.754255916
O       0.111173074      0.509991327      0.489935858
O       0.547386327      0.247267961      0.804470387
O       0.989154302      0.604093325      0.400543377
O       0.853024730      0.455130537      0.648357242
O       0.879414339      0.299771230      0.070325421
O       0.599535408      0.726127293      0.428538989
O       0.780594980      0.613350834      0.855470210
O       0.630141434      1.015004700      0.663927746
O       0.614773927      0.789006668      0.959940708
species
Mg  2.0
Al  3.0
O  -2.0
lennard 12 6
Mg O   1.50 0.00 0.00 6.0
Al O   1.50 0.00 0.00 6.0
O O    1.50 0.00 0.00 6.0
Mg Mg  1.50 0.00 0.00 6.0
Mg Al  1.50 0.00 0.00 6.0
Al Al  1.50 0.00 0.00 6.0
buck
Mg O 1428.5 0.2945 0.0 0.0 7.0
Al O 1114.9 0.3118 0.0 0.0 7.0
O O  2023.8 0.2674 0.0 0.0 7.0
maxcyc 850
switch rfo 0.010
