opti conjugate nosymmetry conp 
pressure 100 GPa
vectors
 5.667242808     -0.015305298     -0.339398723
 0.012004831      4.940224870      0.068546589
-0.867928111      0.103674591      7.249883928
frac
Al      0.113811188      0.203176188      0.565445236
Al      0.930197950      0.130911940      0.893246090
Al      0.447526221      0.130364171      0.911616016
Al      0.739595465      0.306969288      0.232876585
Al      0.593844800      0.449117725      0.576341137
Al      0.101540674      0.598766172      0.081536075
Al      0.584074261      0.598285555      0.087002253
Al      0.631615040      0.791656623      0.872221825
Mg      0.258128636      0.293540795      0.251956403
Mg      0.272634525      0.928151815      0.751208060
Mg      0.911338859      0.769120392      0.608468685
Mg      0.399494357      0.599601736      0.378194683
O       0.759860997      0.251254184      0.446089167
O       0.504652477      0.055622011      0.212809631
O       0.903397563      0.389335125      0.702556309
O       0.682110425      0.349218485      0.954769847
O       0.425036996      0.190218719      0.694129685
O       0.947942401      0.066582186      0.190803901
O       0.230972344      0.352410127      0.943586151
O       0.502861436      0.559985773      0.198930260
O       0.955316657      0.564481124      0.206720858
O       0.278458443      0.474591378      0.450775421
O       0.214914453      0.600922712      0.669389992
O       0.395234039      0.773437310      0.148336065
O       0.782835720      0.893187657      0.242696219
O       0.697448041      0.600440177      0.674856170
O       0.160787016      0.695177342      0.387088494
O       0.488947614      0.890673292      0.513527186
species
Mg  2.0
Al  3.0
O  -2.0
lennard 12 6
Mg O   1.50 0.00 0.00 6.0
Al O   1.50 0.00 0.00 6.0
O O    1.50 0.00 0.00 6.0
Mg Mg  1.50 0.00 0.00 6.0
Mg Al  1.50 0.00 0.00 6.0
Al Al  1.50 0.00 0.00 6.0
buck
Mg O 1428.5 0.2945 0.0 0.0 7.0
Al O 1114.9 0.3118 0.0 0.0 7.0
O O  2023.8 0.2674 0.0 0.0 7.0
maxcyc 850
switch rfo 0.010
