opti conjugate nosymmetry conp 
pressure 100 GPa
vectors
 7.159084491      0.043022363     -0.725307775
 0.000044784      4.854485912     -0.003052315
-0.152355755     -0.002081648      5.812940877
frac
Al      0.229586876      0.517387927      0.444217633
Al      0.027346488      0.041530162      0.488691216
Al      0.321850651      0.042843785      0.779317703
Al      0.447159049      0.633171605      0.580763629
Al      0.690663645      0.748782815      0.341400964
Al      0.833194537      0.334751469      0.102038300
Al      0.925884378      0.854524623      0.580763629
Al      0.955039708      0.553159369      0.820126293
Mg      0.088176201      0.524144656      0.790835835
Mg      0.140499922      0.043680597      0.117951959
Mg      0.955040665      0.553159369      0.341400964
Mg      0.476315336      0.934537817      0.820126293
O       0.074794871      0.234525406      0.314934028
O       0.225721648      0.335859112      0.644082585
O       0.353975036      0.212032976      0.051693501
O       0.081367769      0.904905549      0.770444051
O       0.289723394      0.831109082      0.549490290
O       0.188353306      0.631127320      0.183857118
O       0.833194537      0.334751469      0.580763629
O       0.613344717      0.276064531      0.820126293
O       0.690663645      0.748782815      0.820126293
O       0.645744847      0.510455154      0.580763629
O       0.811303385      0.078014905      0.820126293
O       0.645744847      0.510455154      0.102038300
O       0.447159049      0.633171605      0.102038300
O       0.925884378      0.854524623      0.102038300
O       0.811303385      0.078014905      0.341400964
O       0.613344717      0.276064531      0.341400964
species
Mg  2.0
Al  3.0
O  -2.0
lennard 12 6
Mg O   1.50 0.00 0.00 6.0
Al O   1.50 0.00 0.00 6.0
O O    1.50 0.00 0.00 6.0
Mg Mg  1.50 0.00 0.00 6.0
Mg Al  1.50 0.00 0.00 6.0
Al Al  1.50 0.00 0.00 6.0
buck
Mg O 1428.5 0.2945 0.0 0.0 7.0
Al O 1114.9 0.3118 0.0 0.0 7.0
O O  2023.8 0.2674 0.0 0.0 7.0
maxcyc 850
switch rfo 0.010
