opti conjugate nosymmetry conp 
pressure 100 GPa
vectors
 4.792342787     -0.561755385      0.067237020
 0.664764600      6.016296176      0.453576761
 0.254484905      0.444804954      6.937006263
frac
Al      1.057681814      0.245235272      0.006650253
Al      0.343847881      0.180726543      0.271851977
Al      0.874251329      0.724357193      0.271851977
Al      1.057681814      0.245235272      0.537053702
Al      0.527279427      0.659848465      0.537053702
Al      0.527279427      0.659848465      0.006650253
Al      0.689755341      0.358174686      0.957354489
Al      0.416644241      0.826332108      0.816615117
Mg      0.156127492      0.771671302      0.006650253
Mg      0.156128553      0.771671302      0.537053702
Mg      0.686532001      0.133412434      0.537053702
Mg      0.686532001      0.133412434      0.006650253
O       0.307950175      0.440418436      0.537053702
O       0.123824861      0.044761863      0.271851977
O       0.021129207      0.529686398      0.271851977
O       0.924019085      0.988412185      0.006650253
O       0.924019085      0.988412185      0.537053702
O       0.838353624      0.464664239      0.006650253
O       0.838353624      0.464664239      0.537053702
O       0.654228310      0.860320813      0.271851977
O       0.307950175      0.440418436      0.006650253
O       0.393614575      0.977477387      0.006650253
O       0.551532655      0.375396278      0.271851977
O       0.393615636      0.977477387      0.537053702
O       0.689378755      0.588924585      0.754525028
O       0.778561852      0.063888820      0.051200893
O       0.224753821      0.061690828      0.836790603
O       0.917920054      0.619362317      0.919685236
species
Mg  2.0
Al  3.0
O  -2.0
lennard 12 6
Mg O   1.50 0.00 0.00 6.0
Al O   1.50 0.00 0.00 6.0
O O    1.50 0.00 0.00 6.0
Mg Mg  1.50 0.00 0.00 6.0
Mg Al  1.50 0.00 0.00 6.0
Al Al  1.50 0.00 0.00 6.0
buck
Mg O 1428.5 0.2945 0.0 0.0 7.0
Al O 1114.9 0.3118 0.0 0.0 7.0
O O  2023.8 0.2674 0.0 0.0 7.0
maxcyc 850
switch rfo 0.010
