opti conjugate nosymmetry conp 
pressure 100 GPa
vectors
 5.962619047      0.012932338     -0.501900962
 0.005101876      5.406401711      0.263274658
-0.576744331      0.137285345      6.305553522
frac
Al      0.922449029      0.190372321      0.110380834
Al      0.701355079      0.716861005      0.159000401
Al      0.402505408      0.200093094      0.113045751
Al      0.323931570      1.022447693      0.876741810
Al      0.603728023      0.157000551      0.469095259
Al      0.564123748      0.743493840      0.974855993
Al      0.851090147      0.893003459      0.666669690
Al      0.851092240      0.474455449      0.700790264
Mg      0.174863255      0.717385405      0.153036261
Mg      0.587221444      0.881572365      0.488525292
Mg      0.587222491      0.485887589      0.878934662
Mg      0.294948237      0.466162384      0.759746069
O       0.918223471      1.038628338      0.328877903
O       0.402353635      0.400713445      0.329058983
O       0.495311736      0.907968877      0.225921651
O       0.638374683      0.359822766      0.069724617
O       0.122546716      0.075171684      0.080981958
O       0.988191686      0.533339670      0.225467380
O       0.073691000      0.683729977      0.683729977
O       0.294945097      0.901299663      0.607712839
O       1.041261215      0.244649751      0.450993498
O       0.323931570      0.345011214      0.490718144
O       1.041261215      0.076101568      0.916467503
O       0.062882698      0.347295130      0.020349045
O       0.849083609      0.160375136      0.683731024
O       0.603726976      0.163753908      0.898364695
O       0.067436922      0.709605636      0.995283538
O       0.851491036      0.874743645      0.013167584
species
Mg  2.0
Al  3.0
O  -2.0
lennard 12 6
Mg O   1.50 0.00 0.00 6.0
Al O   1.50 0.00 0.00 6.0
O O    1.50 0.00 0.00 6.0
Mg Mg  1.50 0.00 0.00 6.0
Mg Al  1.50 0.00 0.00 6.0
Al Al  1.50 0.00 0.00 6.0
buck
Mg O 1428.5 0.2945 0.0 0.0 7.0
Al O 1114.9 0.3118 0.0 0.0 7.0
O O  2023.8 0.2674 0.0 0.0 7.0
maxcyc 850
switch rfo 0.010
