opti conjugate nosymmetry conp 
pressure 100 GPa
vectors
 5.030057679      0.139082537      0.013834786
 0.466707701      5.982109034      0.142351413
-0.024644276      0.133530002      6.713565472
frac
Al      0.709187256      0.010533519      0.059143338
Al      0.581302300      0.692968806      0.415236258
Al      0.062155646      0.693733525      0.419571043
Al      0.224521461      0.880166762      0.972405898
Al      0.393837815      0.581997912      0.938901082
Al      0.779826162      0.038768314      0.785030181
Al      0.968168384      0.774164761      0.458715754
Al      0.259985156      0.037927020      0.784307889
Mg      0.771822779      0.342398623      0.265859502
Mg      0.256170652      0.342482442      0.265474555
Mg      0.194710663      0.004112573      0.053446753
Mg      0.077667551      0.303459253      0.848540112
O       0.907401488      0.567727769      0.270667191
O       0.435362120      0.035721632      0.308192212
O       0.375946900      0.576817468      0.257319282
O       0.947877763      0.042762424      0.304759774
O       0.988452345      0.814509392      0.053013171
O       0.501855385      0.796259626      0.050689006
O       0.435818693      0.784492084      0.735812934
O       0.715264873      0.882089424      0.967138756
O       0.573718462      0.307290090      0.845864114
O       0.644394396      0.544031031      0.606989412
O       0.980913004      0.787782754      0.729887658
O       0.909380254      0.573265219      0.942868513
O       0.289044463      0.231362536      0.597454748
O       0.124882457      0.545430083      0.605818016
O       0.430293886      0.783273087      0.462178201
O       0.836729918      0.221087988      0.599997256
species
Mg  2.0
Al  3.0
O  -2.0
lennard 12 6
Mg O   1.50 0.00 0.00 6.0
Al O   1.50 0.00 0.00 6.0
O O    1.50 0.00 0.00 6.0
Mg Mg  1.50 0.00 0.00 6.0
Mg Al  1.50 0.00 0.00 6.0
Al Al  1.50 0.00 0.00 6.0
buck
Mg O 1428.5 0.2945 0.0 0.0 7.0
Al O 1114.9 0.3118 0.0 0.0 7.0
O O  2023.8 0.2674 0.0 0.0 7.0
maxcyc 850
switch rfo 0.010
