opti conjugate nosymmetry conp 
pressure 100 GPa
vectors
 4.667963557     -0.683536044      0.073952152
 0.590074151      6.088668164      0.412009930
 0.227212088      0.403757438      7.022017386
frac
Al      0.330800427      0.213443540      0.998497603
Al      0.955538393      0.301295376      0.257088279
Al      0.767841479      0.044037859      0.493678933
Al      0.453303696      0.689679301      0.967415892
Al      0.981196156      0.813559325      0.210203031
Al      0.981196156      0.813559325      0.715011605
Al      0.574127609      0.498879833      0.715011605
Al      0.476387582      0.960404101      0.210203031
Mg      0.550386099      0.379649743      0.522245040
Mg      0.289922039      0.124226701      0.746644567
Mg      0.574127609      0.498879833      0.210203031
Mg      0.749367867      0.875443808      0.967415892
O       0.546204265      0.354881816      0.745733892
O       0.100933824      0.405808924      0.962670329
O       0.761609112      0.124665885      0.914990149
O       0.867234248      0.176234100      0.599001184
O       0.776268753      0.156569787      0.147321694
O       0.111104707      0.440535715      0.370587420
O       0.593638098      0.438443788      0.166523602
O       0.353821718      0.163543212      0.367732223
O       0.100063897      0.583252529      0.462607318
O       0.783533311      0.628283473      0.210203031
O       0.783533311      0.628283473      0.715011605
O       0.100063897      0.583252529      0.967415892
O       0.244559293      0.898519617      0.462607318
O       0.244559293      0.898519617      0.967415892
O       0.453303696      0.689679301      0.462607318
O       0.476387582      0.960404101      0.715011605
species
Mg  2.0
Al  3.0
O  -2.0
lennard 12 6
Mg O   1.50 0.00 0.00 6.0
Al O   1.50 0.00 0.00 6.0
O O    1.50 0.00 0.00 6.0
Mg Mg  1.50 0.00 0.00 6.0
Mg Al  1.50 0.00 0.00 6.0
Al Al  1.50 0.00 0.00 6.0
buck
Mg O 1428.5 0.2945 0.0 0.0 7.0
Al O 1114.9 0.3118 0.0 0.0 7.0
O O  2023.8 0.2674 0.0 0.0 7.0
maxcyc 850
switch rfo 0.010
