opti conjugate nosymmetry conp 
pressure 100 GPa
vectors
 4.751731352      0.044204335     -0.890961965
 0.028770986      8.560322424     -0.131234326
-0.719865791     -0.122193857      5.090188478
frac
Al      0.036327985      0.484914435      0.269421988
Al      0.132549688      0.102594475      0.107472983
Al      0.412987962      0.573187337      0.964642709
Al      0.848445295      0.197404220      0.600526108
Al      0.871571789      0.327178701      0.111686254
Al      0.480337851      0.440131117      0.401997724
Al      0.846787020      0.473090094      0.654566041
Al      0.778761963      0.621688488      0.849083781
Mg      0.452116321      0.289352080      0.561356979
Mg      0.139394296      0.770729693      0.579558294
Mg      0.013201492      0.355139953      0.758261842
Mg      0.974638100      0.612993959      0.421822560
O       0.286352289      0.413638364      0.103011526
O       0.267186791      0.953975130      0.458957950
O       0.026184699      0.240149944      0.310649505
O       0.349768927      0.689356013      0.270494406
O       0.296435003      0.491289364      0.589591359
O       0.311472685      0.177923888      0.825165824
O       0.011543216      0.630825827      0.812301774
O       0.240395210      0.916298507      0.968644417
O       0.623025039      0.786662109      0.947201082
O       0.967793492      0.937838278      0.942716787
O       0.559735502      0.277868331      0.801185427
O       0.783217463      0.913469567      0.372762420
O       0.861428503      0.082414210      0.152913772
O       0.608713225      0.727606637      0.448115665
O       0.578981431      0.266375585      0.282747832
O       0.637457996      0.005936912      0.669189650
species
Mg  2.0
Al  3.0
O  -2.0
lennard 12 6
Mg O   1.50 0.00 0.00 6.0
Al O   1.50 0.00 0.00 6.0
O O    1.50 0.00 0.00 6.0
Mg Mg  1.50 0.00 0.00 6.0
Mg Al  1.50 0.00 0.00 6.0
Al Al  1.50 0.00 0.00 6.0
buck
Mg O 1428.5 0.2945 0.0 0.0 7.0
Al O 1114.9 0.3118 0.0 0.0 7.0
O O  2023.8 0.2674 0.0 0.0 7.0
maxcyc 850
switch rfo 0.010
