opti conjugate nosymmetry conp 
pressure 100 GPa
vectors
 5.851334980      0.291621547     -0.228675790
 0.260046365      5.286010162     -0.176641595
-0.454951829     -0.096995095      6.550303610
frac
Al      0.311323905      0.508951001      0.883812554
Al      0.006943561      1.048874794      0.705072189
Al      0.098333198      0.493304677      0.160893675
Al      0.200719503      1.016117867      0.329845915
Al      0.608159798      0.242880667      0.524968705
Al      0.715146791      0.386920096      0.894117088
Al      0.760006204      0.922196337      0.316568181
Al      0.509052602      0.888264301      0.023864698
Mg      0.428614143      0.470001366      0.516396493
Mg      0.315684373      1.055763493      0.070297309
Mg      1.025424939      0.086220520      0.459295760
Mg      0.775439737      0.109539285      0.217252306
O       0.185771329      0.728719719      0.683905411
O       0.342487065      0.233514198      0.733424407
O       0.310610648      0.231026972      0.198609947
O       0.146772058      0.623935750      0.383014281
O       0.073767391      0.435017266      0.027673486
O       0.009865647      0.974147952      0.915098727
O       0.494276624      0.601817920      0.820792588
O       0.920779061      0.953227522      0.711963353
O       0.453783162      0.084051131      0.696154850
O       0.633656647      0.685070964      0.503525875
O       0.949120245      0.680886520      0.077852719
O       0.800122522      0.462191177      0.213768893
O       1.055254046      0.391481683      0.473065297
O       0.900172033      0.515822706      0.763197250
O       0.522801489      0.226172237      0.072746109
O       0.894390979      0.124226140      0.968457811
species
Mg  2.0
Al  3.0
O  -2.0
lennard 12 6
Mg O   1.50 0.00 0.00 6.0
Al O   1.50 0.00 0.00 6.0
O O    1.50 0.00 0.00 6.0
Mg Mg  1.50 0.00 0.00 6.0
Mg Al  1.50 0.00 0.00 6.0
Al Al  1.50 0.00 0.00 6.0
buck
Mg O 1428.5 0.2945 0.0 0.0 7.0
Al O 1114.9 0.3118 0.0 0.0 7.0
O O  2023.8 0.2674 0.0 0.0 7.0
maxcyc 850
switch rfo 0.010
