opti conjugate nosymmetry conp 
pressure 100 GPa
vectors
 6.456577730     -0.983651654      0.058754796
-0.585619235      5.128592138     -0.170207576
 0.076233603     -0.617080857      6.212958299
frac
Al      0.274883207      0.440788286      0.159705596
Al      0.610580573      0.869051103      0.302604583
Al      0.734000564      0.437962223      0.163463017
Al      0.155843066      0.880231966      0.299592066
Al      0.451719053      0.198546021      0.703644486
Al      0.152924112      0.812192000      0.690594509
Al      0.677064686      0.708468536      0.530464945
Al      0.258103566      0.661372358      0.823115118
Mg      0.394500991      0.905841107      0.002626937
Mg      0.433194264      0.829059721      0.463163147
Mg      0.453677738      0.358496443      0.464977421
Mg      0.873781348      0.180773448      0.499827020
O       0.442118144      0.198436005      0.238198311
O       0.565645986      0.684731827      0.138770610
O       0.111726502      0.694116697      0.134129359
O       0.694793051      0.270517981      0.017894259
O       0.904204147      0.202195254      0.238476165
O       0.309682537      0.621452508      0.337844457
O       0.784761850      0.613407550      0.334786240
O       0.241210829      0.292658523      0.003322485
O       0.646659829      0.257780012      0.683773387
O       0.005491725      0.617636928      0.516500976
O       0.013528456      0.062047719      0.897808369
O       0.266718854      0.168910746      0.811032144
O       0.150770747      0.345415390      0.674688307
O       0.758234484      0.063782476      0.760161179
O       0.473293833      0.667458630      0.718064537
O       0.778626559      0.509705445      0.703850134
species
Mg  2.0
Al  3.0
O  -2.0
lennard 12 6
Mg O   1.50 0.00 0.00 6.0
Al O   1.50 0.00 0.00 6.0
O O    1.50 0.00 0.00 6.0
Mg Mg  1.50 0.00 0.00 6.0
Mg Al  1.50 0.00 0.00 6.0
Al Al  1.50 0.00 0.00 6.0
buck
Mg O 1428.5 0.2945 0.0 0.0 7.0
Al O 1114.9 0.3118 0.0 0.0 7.0
O O  2023.8 0.2674 0.0 0.0 7.0
maxcyc 850
switch rfo 0.010
