opti conjugate nosymmetry conp 
pressure 100 GPa
vectors
 6.421801285     -0.869695683     -0.282926127
 0.039000944      6.804697468     -0.299968971
-0.373547571     -0.342007528      4.640873765
frac
Al      0.174227090      0.655218828      0.424159493
Al      0.277399721      0.245280582      0.250511508
Al      0.074712806      0.971003611      0.150114578
Al      0.878129193      0.526507301      0.408693828
Al      0.887491198      0.944011384      0.852879571
Al      0.524991153      0.916871899      0.167826375
Al      0.690289674      0.946032206      0.692534085
Al      0.560316136      0.107309263      0.603549794
Mg      0.079490164      0.219151508      0.704095454
Mg      0.284738774      0.961681001      0.756699634
Mg      0.149429969      0.516069611      0.948312489
Mg      0.886823624      0.209742985      0.091487657
O       0.442312817      0.578793869      0.245727761
O       0.421762829      0.093452785      0.627387281
O       0.163351066      0.392772876      0.468365232
O       0.453123893      0.662054273      0.767457474
O       0.469247877      0.326051693      0.020049526
O       0.147651902      0.811670666      0.006256194
O       0.393035860      0.053054454      0.109181762
O       0.623496090      0.633634269      0.935834403
O       0.656110320      0.150949640      0.035231518
O       0.879346158      0.391478515      0.876720581
O       0.857368392      0.737008131      0.108658252
O       0.824890446      0.017604162      0.389270305
O       0.595734814      0.632317222      0.424960484
O       0.511929277      0.375734633      0.095657065
O       1.049873475      0.753144891      0.611495732
O       0.714044443      0.400777702      0.626937237
species
Mg  2.0
Al  3.0
O  -2.0
lennard 12 6
Mg O   1.50 0.00 0.00 6.0
Al O   1.50 0.00 0.00 6.0
O O    1.50 0.00 0.00 6.0
Mg Mg  1.50 0.00 0.00 6.0
Mg Al  1.50 0.00 0.00 6.0
Al Al  1.50 0.00 0.00 6.0
buck
Mg O 1428.5 0.2945 0.0 0.0 7.0
Al O 1114.9 0.3118 0.0 0.0 7.0
O O  2023.8 0.2674 0.0 0.0 7.0
maxcyc 850
switch rfo 0.010
