opti conjugate nosymmetry conp 
pressure 100 GPa
vectors
 5.264570740     -0.689817027     -0.020837514
-0.695037339      4.585938483     -0.007011692
-0.378242982      0.053441931      8.516043138
frac
Al      0.149548233      0.330364705      0.024018566
Al      0.515417763      0.797119380      0.179761180
Al      0.649930626      0.327284637      0.028113700
Al      0.019808875      0.809305170      0.176477900
Al      0.889615029      0.298309893      0.356441676
Al      0.514642634      0.951974428      0.731164211
Al      0.564086741      0.315277899      0.682434148
Al      0.069291609      0.307577693      0.684729573
Mg      0.393576805      0.296963111      0.357569307
Mg      0.280106766      0.826870874      0.863321749
Mg      0.857513463      0.410382273      0.807134768
Mg      0.370506557      0.432529515      0.807156526
O       0.578726489      0.982226230      0.350838384
O       0.192793689      0.528440310      0.481579859
O       0.717522758      0.531608038      0.475875958
O       0.331814089      0.066230028      0.109566133
O       0.466444497      0.596233662      0.001201963
O       0.835431948      0.070327155      0.109868960
O       0.187475294      0.527266856      0.218168381
O       0.051503084      0.992116911      0.348390867
O       0.705254289      0.518498826      0.214835294
O       0.062866200      0.939584473      0.725609104
O       0.974564733      0.831266895      0.521591214
O       0.772957561      0.810889929      0.853412159
O       0.470247274      0.832247964      0.527585429
O       0.080001285      0.082388686      0.989571531
O       0.664804571      0.591864252      0.562153283
O       0.171260501      0.582768593      0.555910835
species
Mg  2.0
Al  3.0
O  -2.0
lennard 12 6
Mg O   1.50 0.00 0.00 6.0
Al O   1.50 0.00 0.00 6.0
O O    1.50 0.00 0.00 6.0
Mg Mg  1.50 0.00 0.00 6.0
Mg Al  1.50 0.00 0.00 6.0
Al Al  1.50 0.00 0.00 6.0
buck
Mg O 1428.5 0.2945 0.0 0.0 7.0
Al O 1114.9 0.3118 0.0 0.0 7.0
O O  2023.8 0.2674 0.0 0.0 7.0
maxcyc 850
switch rfo 0.010
