opti conjugate nosymmetry conp 
pressure 100 GPa
vectors
 6.775812209      0.002635303      0.006213313
-0.013200097      4.530129423     -0.812470093
-0.094782413     -1.420178080      6.818620280
frac
Al      0.335440070      0.903712968      0.357708344
Al      0.053633656      0.400202045      0.040484717
Al      0.335440070      0.358953573      0.401377720
Al      0.614973661      0.940258740      0.750344576
Al      0.617247605      0.400202045      0.040483595
Al      0.055910966      0.940258740      0.750344576
Al      1.075763578      0.196775895      0.323239500
Al      0.762726610      0.064067076      0.603698599
Mg      0.335442313      0.405338893      0.793818754
Mg      0.615077991      0.956905537      0.007787935
Mg      0.055805514      0.956905537      0.007787935
Mg      0.658716381      0.455349262      0.042788254
O       0.067874133      0.021447305      0.334202694
O       0.614081808      0.491009487      0.622900494
O       0.056805062      0.491009487      0.622899372
O       0.335442313      1.020009452      0.615441463
O       0.603007128      0.021448427      0.334203816
O       0.065554194      0.623517499      0.334841014
O       0.605327067      0.623518621      0.334841014
O       0.636890804      0.260246221      0.904954831
O       0.335441192      0.199751678      0.100375717
O       0.033993823      0.260247343      0.904953710
O       0.335441192      0.676154763      0.057862945
O       0.335442313      0.880771598      0.898986709
O       1.033324846      0.482687075      0.603692990
O       0.907566871      1.016261851      0.323241743
O       1.054931243      0.889282205      0.042787132
O       1.075763578      0.196774773      0.884153210
species
Mg  2.0
Al  3.0
O  -2.0
lennard 12 6
Mg O   1.50 0.00 0.00 6.0
Al O   1.50 0.00 0.00 6.0
O O    1.50 0.00 0.00 6.0
Mg Mg  1.50 0.00 0.00 6.0
Mg Al  1.50 0.00 0.00 6.0
Al Al  1.50 0.00 0.00 6.0
buck
Mg O 1428.5 0.2945 0.0 0.0 7.0
Al O 1114.9 0.3118 0.0 0.0 7.0
O O  2023.8 0.2674 0.0 0.0 7.0
maxcyc 850
switch rfo 0.010
