opti conjugate nosymmetry conp 
pressure 100 GPa
vectors
 8.202403040     -0.023805164     -0.115384608
 0.014209455      4.667901226      0.328995124
 0.014971235      0.406001214      5.290719877
frac
Al      0.132388278      0.377691595      0.142043240
Al      0.443173751      0.260626684      0.393791255
Al      0.443174758      0.260626684      0.897284265
Al      0.132390292      0.377691595      0.645534236
Al      0.143897741      0.827079997      0.095187911
Al      0.462378586      0.861185539      0.861382907
Al      0.352922446      0.629750405      0.124081303
Al      0.830199634      0.547688257      0.472454468
Mg      0.779433906      0.285165877      0.393784207
Mg      0.779434913      0.285165877      0.897276209
Mg      0.845294324      0.552677863      0.989787466
Mg      0.802359547      0.827892633      0.153914211
O       0.817528111      0.028523919      0.142041226
O       0.292199660      0.532017936      0.897282251
O       0.292201674      0.532019950      0.393794276
O       0.817528111      0.028522912      0.645533229
O       0.310895325      0.146647171      0.645538264
O       0.310896332      0.146647171      0.142046261
O       0.573190491      0.412889714      0.645537257
O       0.034327168      0.230232885      0.393788234
O       0.034326161      0.230231878      0.897279230
O       0.573189484      0.412889714      0.142045254
O       0.093265578      0.536689978      0.420162796
O       0.467170823      0.855441702      0.363018467
O       0.337319229      0.649653444      0.670789031
O       0.614896384      0.624211993      0.710787442
O       0.150147084      0.827165591      0.600171257
O       0.976951441      1.006046230      0.566511809
species
Mg  2.0
Al  3.0
O  -2.0
lennard 12 6
Mg O   1.50 0.00 0.00 6.0
Al O   1.50 0.00 0.00 6.0
O O    1.50 0.00 0.00 6.0
Mg Mg  1.50 0.00 0.00 6.0
Mg Al  1.50 0.00 0.00 6.0
Al Al  1.50 0.00 0.00 6.0
buck
Mg O 1428.5 0.2945 0.0 0.0 7.0
Al O 1114.9 0.3118 0.0 0.0 7.0
O O  2023.8 0.2674 0.0 0.0 7.0
maxcyc 850
switch rfo 0.010
