opti conjugate nosymmetry conp 
pressure 100 GPa
vectors
 8.711071340     -0.048852303     -0.236035792
 0.028154480      4.542777164      0.652316461
 0.029287580      0.802107656      5.205897576
frac
Al      0.857242481      0.183195861      0.109544350
Al      0.514592667      0.208724612      0.883890133
Al      0.514332690      0.216734907      0.380257501
Al      0.160425867      0.202256182      0.843685675
Al      0.328700043      0.724706157      0.724902139
Al      0.666293302      0.691647069      0.022402026
Al      0.018661356      0.690925133      0.465524989
Al      0.668960068      0.688000390      0.521828029
Mg      0.844260624      0.176376462      0.611624119
Mg      0.333458624      0.719002659      0.230037735
Mg      0.481287601      0.490103824      0.054283218
Mg      0.588420163      0.953492002      0.193273973
O       0.839659030      0.868549485      0.432101934
O       0.480146701      0.489396886      0.575364313
O       0.012455903      0.690840140      0.964000076
O       0.962091244      0.402489542      0.286780736
O       0.693937867      0.413410580      0.338705162
O       0.220012618      0.494896402      0.992690548
O       0.975374074      0.391364522      0.789405457
O       0.341899880      0.025210779      0.890683535
O       0.356028635      0.013241833      0.427140371
O       0.593004759      0.951110211      0.694282837
O       0.825786252      0.897332949      0.960052424
O       0.204518983      0.514659661      0.535646812
O       0.095487588      0.950680249      0.656351178
O       0.085930430      0.955891790      0.157219150
O       0.708926547      0.418365144      0.852404907
O       0.171926854      0.227994915      0.334946493
species
Mg  2.0
Al  3.0
O  -2.0
lennard 12 6
Mg O   1.50 0.00 0.00 6.0
Al O   1.50 0.00 0.00 6.0
O O    1.50 0.00 0.00 6.0
Mg Mg  1.50 0.00 0.00 6.0
Mg Al  1.50 0.00 0.00 6.0
Al Al  1.50 0.00 0.00 6.0
buck
Mg O 1428.5 0.2945 0.0 0.0 7.0
Al O 1114.9 0.3118 0.0 0.0 7.0
O O  2023.8 0.2674 0.0 0.0 7.0
maxcyc 850
switch rfo 0.010
