opti conjugate nosymmetry conp 
pressure 100 GPa
vectors
 5.176386552      1.007389960     -0.020333757
 1.697029689      7.878988497      0.315356207
-0.023748808      0.233625331      5.166596077
frac
Al      0.069657358      0.395446791      0.442558653
Al      0.421104327      0.653880552      0.924398419
Al      0.648343467      0.691857878      0.146414340
Al      0.569081207      0.405307436      0.929362841
Al      0.683549743      0.047333506      0.289201142
Al      0.948626804      0.053938694      0.787678241
Al      0.189042176      0.033891456      0.290013502
Al      0.445478134      0.054679847      0.791879445
Mg      0.130362710      0.717085165      0.642904667
Mg      0.920948397      0.653375084      0.384650427
Mg      0.573948346      0.389223712      0.437037614
Mg      0.074108288      0.396759604      0.939695859
O       0.140475086      0.150669702      0.949176400
O       0.261763435      0.935470584      0.647564203
O       0.520351645      0.927242682      0.147418257
O       0.807183906      0.419858708      0.683932856
O       0.803143167      0.434884359      0.179790299
O       0.749599621      0.944280176      0.634627622
O       0.402525354      0.682863750      0.372162148
O       0.300992396      0.426682532      0.680606192
O       0.305378137      0.436607364      0.174750659
O       0.906101265      0.676639669      0.927542553
O       0.145128605      0.690595210      0.145922913
O       0.633514388      0.717166401      0.642531583
O       0.340316635      0.171733895      0.436617393
O       0.006519941      0.924104565      0.137745156
O       0.871628119      0.154046512      0.434364849
O       0.635072915      0.172328622      0.943232132
species
Mg  2.0
Al  3.0
O  -2.0
lennard 12 6
Mg O   1.50 0.00 0.00 6.0
Al O   1.50 0.00 0.00 6.0
O O    1.50 0.00 0.00 6.0
Mg Mg  1.50 0.00 0.00 6.0
Mg Al  1.50 0.00 0.00 6.0
Al Al  1.50 0.00 0.00 6.0
buck
Mg O 1428.5 0.2945 0.0 0.0 7.0
Al O 1114.9 0.3118 0.0 0.0 7.0
O O  2023.8 0.2674 0.0 0.0 7.0
maxcyc 850
switch rfo 0.010
