opti conjugate nosymmetry conp 
pressure 100 GPa
vectors
 5.259769930      0.033436126      0.085415240
-0.016207004      5.098437249     -0.997626500
-0.116430457     -1.744174819      7.852429041
frac
Al      0.727289508      0.740914264      0.245471794
Al      0.226857734      0.733855173      0.246724875
Al      0.976301357      0.284636586      0.964570235
Al      0.226857734      0.247835834      0.285685491
Al      0.476249910      0.766460305      0.597024115
Al      0.986936533      0.483872487      0.226323273
Al      0.478278661      0.284636586      0.964569234
Al      0.475454224      0.365652486      0.483322012
Mg      0.727291510      0.270477369      0.612333324
Mg      0.727289508      0.248140096      0.273750193
Mg      0.476342991      0.781312119      0.935399066
Mg      0.978239029      0.781312119      0.935399066
O       0.989006319      0.947585581      0.225753781
O       0.978333110      0.766460305      0.597024115
O       0.979130798      0.365652486      0.483321011
O       0.727291510      0.857880183      0.476385027
O       0.226859736      0.837611695      0.476667270
O       0.465573699      0.947586582      0.225754782
O       0.226859736      0.289219540      0.635810580
O       0.467643485      0.483873488      0.226323273
O       0.495803782      0.159771852      0.734963129
O       0.727290509      0.547443336      0.999170088
O       0.727292511      0.662404525      0.717251848
O       0.226858735      0.105800285      0.017139788
O       0.958779239      0.159772853      0.734962128
O       0.226858735      0.530834006      0.980074612
O       0.226859736      0.713387514      0.729638535
O       0.727290509      0.089932594      0.998949898
species
Mg  2.0
Al  3.0
O  -2.0
lennard 12 6
Mg O   1.50 0.00 0.00 6.0
Al O   1.50 0.00 0.00 6.0
O O    1.50 0.00 0.00 6.0
Mg Mg  1.50 0.00 0.00 6.0
Mg Al  1.50 0.00 0.00 6.0
Al Al  1.50 0.00 0.00 6.0
buck
Mg O 1428.5 0.2945 0.0 0.0 7.0
Al O 1114.9 0.3118 0.0 0.0 7.0
O O  2023.8 0.2674 0.0 0.0 7.0
maxcyc 850
switch rfo 0.010
