opti conjugate nosymmetry conp 
pressure 100 GPa
vectors
 5.947757082      1.357051381      0.326507819
 1.207258353      4.477957762     -0.034111194
-0.224672409     -0.037917188      8.048183770
frac
Al      1.220204179      1.243063004      0.411838347
Al      0.380608756      1.231219671      0.413940694
Al      1.637981824      0.477546764      0.618300028
Al      0.380608756      0.415804596      0.479306556
Al      0.799024493      1.285922671      0.001652453
Al      1.220207537      0.453791251      0.027337356
Al      0.802428213      0.477546764      0.618298349
Al      1.641390582      1.285922671      0.001652453
Mg      0.380612114      0.485235779      0.066726136
Mg      1.220204179      0.416315070      0.459282205
Mg      0.799180658      1.310840184      0.569358332
Mg      1.641232738      1.310840184      0.569358332
O       1.659297473      1.589804160      0.378756608
O       0.797689537      0.613470546      0.810889656
O       1.642728897      0.613470546      0.810887977
O       1.220207537      1.439301642      0.799251184
O       0.380612114      1.405296349      0.799724716
O       0.781112565      1.589805839      0.378758287
O       1.655824906      0.811813211      0.379712068
O       0.784585131      0.811814890      0.379712068
O       0.831830845      0.268055952      0.233078535
O       1.220205858      0.918468697      0.676349656
O       1.220209217      1.111343916      0.203363574
O       0.380610435      0.177505585      0.028756143
O       1.608584230      0.268057631      0.233076856
O       0.380610435      0.890602525      0.644312374
O       0.380612114      1.196880218      0.224145240
O       1.220205858      0.150883694      0.675980234
species
Mg  2.0
Al  3.0
O  -2.0
lennard 12 6
Mg O   1.50 0.00 0.00 6.0
Al O   1.50 0.00 0.00 6.0
O O    1.50 0.00 0.00 6.0
Mg Mg  1.50 0.00 0.00 6.0
Mg Al  1.50 0.00 0.00 6.0
Al Al  1.50 0.00 0.00 6.0
buck
Mg O 1428.5 0.2945 0.0 0.0 7.0
Al O 1114.9 0.3118 0.0 0.0 7.0
O O  2023.8 0.2674 0.0 0.0 7.0
maxcyc 850
switch rfo 0.010
