opti conjugate nosymmetry conp 
pressure 100 GPa
vectors
 6.588377612      0.020547808     -0.796086680
 0.015089024      4.595141328     -0.003425953
-0.914811525     -0.005650598      6.765858788
frac
Al      0.957527342      0.250146897      0.172853884
Al      0.354689989      0.761655064      0.833839508
Al      0.743891892      0.758874733      0.219833294
Al      0.643458107      0.249590628      0.878244911
Al      0.077526645      0.938984382      0.769610716
Al      0.455123774      0.259539744      0.175428902
Al      0.544799325      0.943535670      0.284496987
Al      0.549290940      0.760262370      0.526834884
Mg      0.808149003      0.257284328      0.539001995
Mg      0.863420859      0.761146331      0.839602451
Mg      0.235161021      0.759381443      0.214070351
Mg      0.290450072      0.251843010      0.514684967
O       0.794013713      0.962744130      0.036285905
O       0.953444331      0.058389995      0.383980058
O       0.553779522      0.576991092      0.769172781
O       0.454977121      0.453392262      0.384155030
O       0.141053527      0.258982464      0.880818918
O       0.043592239      0.760262370      0.526834884
O       0.800956956      0.659498870      0.517461253
O       0.304565134      0.557785667      0.005986461
O       0.145132493      0.450735321      0.669688698
O       0.683036110      0.413881011      0.133569186
O       0.184609356      0.138832499      0.144446766
O       0.643600714      0.055739122      0.669514738
O       0.009654800      0.581544404      0.284058040
O       0.913970502      0.370294840      0.909220979
O       0.297623913      0.861026882      0.536211549
O       0.415543748      0.095252396      0.920099570
species
Mg  2.0
Al  3.0
O  -2.0
lennard 12 6
Mg O   1.50 0.00 0.00 6.0
Al O   1.50 0.00 0.00 6.0
O O    1.50 0.00 0.00 6.0
Mg Mg  1.50 0.00 0.00 6.0
Mg Al  1.50 0.00 0.00 6.0
Al Al  1.50 0.00 0.00 6.0
buck
Mg O 1428.5 0.2945 0.0 0.0 7.0
Al O 1114.9 0.3118 0.0 0.0 7.0
O O  2023.8 0.2674 0.0 0.0 7.0
maxcyc 850
switch rfo 0.010
