opti conjugate nosymmetry conp 
pressure 100 GPa
vectors
 5.358126669     -3.048514156     -2.314039268
-0.944699097     13.079579533      0.013807179
-8.346599588      2.313303327      6.679418439
frac
Al      0.027800504      0.145684596      0.171329819
Al      0.228654924      0.009435193      0.097630271
Al      0.283758535      0.246577216      0.175430547
Al      0.099627536      0.035858338      0.174080058
Al      0.001322981      0.055959262      0.255508295
Al      0.161820097      0.274410667      0.260404858
Al      0.102353465      0.192905661      0.015492563
Al      0.256175223      0.166149851      0.256707486
Mg      0.033458677      0.299235105      0.024542952
Mg      0.270807336      0.218311302      0.095637803
Mg      0.019825516      0.114433659      0.092700761
Mg      0.170822506      0.090139885      0.012921771
O       0.122240396      0.055759344      0.114125944
O       0.283222114      0.045157587      0.041979682
O       0.032133777      0.291388064      0.095349281
O       0.210931591      0.307522925      0.164079655
O       0.100378910      0.218450445      0.148973495
O       0.133843344      0.234788423      0.048861037
O       0.219600376      0.150243377      0.045504645
O       0.196235504      0.143120522      0.131241525
O       0.074168477      0.151440329      0.295277358
O       0.187262202      0.156971834      0.206906033
O       0.105023416      0.228558324      0.225628318
O       0.214153957      0.318525159      0.296363955
O       0.047161889      0.317862389      0.231711918
O       0.187375756      0.087392845      0.268066054
O       0.292235079      0.073761283      0.191585240
O       0.291052201      0.230767663      0.295459364
species
Mg  2.0
Al  3.0
O  -2.0
lennard 12 6
Mg O   1.50 0.00 0.00 6.0
Al O   1.50 0.00 0.00 6.0
O O    1.50 0.00 0.00 6.0
Mg Mg  1.50 0.00 0.00 6.0
Mg Al  1.50 0.00 0.00 6.0
Al Al  1.50 0.00 0.00 6.0
buck
Mg O 1428.5 0.2945 0.0 0.0 7.0
Al O 1114.9 0.3118 0.0 0.0 7.0
O O  2023.8 0.2674 0.0 0.0 7.0
maxcyc 850
switch rfo 0.010
