opti conjugate nosymmetry conp 
pressure 100 GPa
vectors
 2.343455388     -1.286617330      0.095661253
 1.599069073      8.287278325      1.013415141
 0.601244459      0.996168233      9.542607899
frac
Al      0.087154350      0.456720000      0.537117562
Al      0.716831291      0.029579251      0.306070088
Al      0.661268789      0.964081820      0.514388359
Al      0.419597775      0.736059760      0.153178944
Al      0.887898979      0.141568660      0.131605956
Al      0.507304661      0.860275165      0.816367070
Al      0.320877263      0.604757648      0.048569056
Al      0.803107198      0.520878405      0.804775838
Mg      0.104892675      0.938099571      0.076941952
Mg      0.848978753      0.684404121      0.299823719
Mg      0.062152828      0.358748571      0.290616116
Mg      0.587421442      0.273975844      0.840384856
O       0.383222626      0.174805080      0.357783889
O       0.004147533      0.175431823      0.801016385
O       0.100739125      0.913499165      0.298919204
O       0.889580655      0.773017528      0.549973310
O       0.314687050      0.684840334      0.467030671
O       0.312331500      0.112415594      0.545739537
O       0.688445359      0.471011741      0.142656685
O       0.615196676      0.448681648      0.411441093
O       0.232517561      0.474764176      0.925692070
O       0.587065452      0.492105396      0.648648696
O       0.329247538      0.716528449      0.707342907
O       0.671370880      0.998573732      0.929098542
O       0.147852132      0.996495954      0.726414940
O       0.535527139      0.282587791      0.040509645
O       0.916154549      0.231241011      0.600618138
O       0.912446237      0.723454709      0.926262657
species
Mg  2.0
Al  3.0
O  -2.0
lennard 12 6
Mg O   1.50 0.00 0.00 6.0
Al O   1.50 0.00 0.00 6.0
O O    1.50 0.00 0.00 6.0
Mg Mg  1.50 0.00 0.00 6.0
Mg Al  1.50 0.00 0.00 6.0
Al Al  1.50 0.00 0.00 6.0
buck
Mg O 1428.5 0.2945 0.0 0.0 7.0
Al O 1114.9 0.3118 0.0 0.0 7.0
O O  2023.8 0.2674 0.0 0.0 7.0
maxcyc 850
switch rfo 0.010
