opti conjugate nosymmetry conp 
pressure 100 GPa
vectors
 8.142948877     -4.326922593     -1.914719954
-2.713105614      5.652435271      2.505471892
-2.169606349      4.235127560      7.753396025
frac
Al      0.735130431      0.192047358      0.132706550
Al      0.272309095      0.584751778      0.640170541
Al      0.571114309      0.582617211      0.168774443
Al      0.494007444      0.191620289      0.674262271
Al      0.033467433      0.583682553      0.404471327
Al      0.349415960      0.199258607      0.134683490
Al      0.108292198      0.198830761      0.676238434
Al      0.421711702      0.583682553      0.404471327
Mg      0.620446956      0.197527037      0.413812485
Mg      0.662881278      0.584361204      0.644594973
Mg      0.180542127      0.583006231      0.164350011
Mg      0.222989649      0.193349529      0.395143371
O       0.609594752      0.739135559      0.027858079
O       0.731995746      0.044828236      0.294796204
O       0.425157759      0.442978171      0.590523417
O       0.349303370      0.348086612      0.294930536
O       0.418263317      0.724388488      0.218419238
O       0.059520176      0.720894290      0.590859636
O       0.614925346      0.506322553      0.397274832
O       0.233826323      0.428233430      0.004596036
O       0.111423776      0.346046777      0.514145675
O       0.524392994      0.317752311      0.102546183
O       0.141731677      0.106587029      0.110897317
O       0.494116929      0.042793060      0.514012119
O       0.007412360      0.446473922      0.218082242
O       0.701690175      0.284289537      0.698043785
O       0.228497283      0.661043330      0.411670153
O       0.319028858      0.073128914      0.706395696
species
Mg  2.0
Al  3.0
O  -2.0
lennard 12 6
Mg O   1.50 0.00 0.00 6.0
Al O   1.50 0.00 0.00 6.0
O O    1.50 0.00 0.00 6.0
Mg Mg  1.50 0.00 0.00 6.0
Mg Al  1.50 0.00 0.00 6.0
Al Al  1.50 0.00 0.00 6.0
buck
Mg O 1428.5 0.2945 0.0 0.0 7.0
Al O 1114.9 0.3118 0.0 0.0 7.0
O O  2023.8 0.2674 0.0 0.0 7.0
maxcyc 850
switch rfo 0.010
