opti conjugate nosymmetry conp 
pressure 100 GPa
vectors
 7.596854761     -6.084111964      4.451218947
-3.368564916      1.663978563     -6.749351751
 3.483250341     -2.413778700     29.431854450
frac
Al      0.014383476      0.213841587      0.132118995
Al      0.192205176      0.092770227      0.133415413
Al      0.135843377      0.092770227      0.013421122
Al      0.073676255      0.213841587      0.012124703
Al      0.193670546      0.176565120      0.061487955
Al      0.015849086      0.057647897      0.060191536
Al      0.072210885      0.057647897      0.180185828
Al      0.134377767      0.176565120      0.181482246
Mg      0.129657912      0.015044884      0.102087303
Mg      0.078396350      0.135373240      0.091519886
Mg      0.009663620      0.135373240      0.211513937
Mg      0.198390642      0.015044884      0.222081355
O       0.037297106      0.015274553      0.217116471
O       0.175650284      0.016475216      0.075264019
O       0.109066651      0.096656602      0.161264168
O       0.032403978      0.133942668      0.118342930
O       0.152398270      0.016475216      0.195258311
O       0.233883993      0.213204417      0.042991075
O       0.218981902      0.096656602      0.041269877
O       0.170757156      0.135143331      0.216479061
O       0.055655992      0.133942668      0.238337221
O       0.098987611      0.053761522      0.032342781
O       0.050762865      0.015274553      0.097122180
O       0.113889702      0.177202290      0.030621583
O       0.094164560      0.213204417      0.162985366
O       0.157291397      0.135143571      0.096484770
O       0.214158612      0.177202290      0.150615875
O       0.229060943      0.053761522      0.152337313
species
Mg  2.0
Al  3.0
O  -2.0
lennard 12 6
Mg O   1.50 0.00 0.00 6.0
Al O   1.50 0.00 0.00 6.0
O O    1.50 0.00 0.00 6.0
Mg Mg  1.50 0.00 0.00 6.0
Mg Al  1.50 0.00 0.00 6.0
Al Al  1.50 0.00 0.00 6.0
buck
Mg O 1428.5 0.2945 0.0 0.0 7.0
Al O 1114.9 0.3118 0.0 0.0 7.0
O O  2023.8 0.2674 0.0 0.0 7.0
maxcyc 850
switch rfo 0.010
