opti conjugate nosymmetry conp 
pressure 100 GPa
vectors
 8.143768252     -3.229704465      0.732484084
-5.021591065     17.491949661      4.962167682
 0.116028544      3.164658420      2.727968499
frac
Al      0.392586337      0.140098375      0.024895301
Al      0.698088966      0.293240698      0.132985643
Al      0.327543828      0.581651945      0.138961165
Al      0.031197956      0.008921192      0.012549187
Al      0.324225980      0.672717366      0.511562881
Al      0.407140411      0.377239909      0.348881286
Al      0.239751209      0.358886519      0.649999748
Al      0.629069175      0.512258499      0.681365331
Mg      0.268849757      0.147807035      0.350088648
Mg      0.632382591      0.729247045      0.327139897
Mg      0.036288079      0.505792647      0.363624402
Mg      0.680890509      0.196731437      0.496520693
O       0.145576183      0.240234892      0.009231340
O       0.131323396      0.642066600      0.273937664
O       0.554656497      0.431861438      0.138979626
O       0.690545718      0.111216931      0.163645270
O       0.502609198      0.591026544      0.383177770
O       0.321229358      0.036069498      0.158880064
O       0.192737172      0.445277563      0.133783167
O       0.480498584      0.248023305      0.260198837
O       0.153074385      0.297981535      0.371085682
O       0.164257443      0.064941342      0.546275111
O       0.679657301      0.401750478      0.536708516
O       0.523985794      0.054343135      0.547583641
O       0.111399328      0.614047663      0.652975694
O       0.513252450      0.634944268      0.015884019
O       0.331498217      0.469125745      0.537398227
O       0.466185983      0.256570103      0.645744810
species
Mg  2.0
Al  3.0
O  -2.0
lennard 12 6
Mg O   1.50 0.00 0.00 6.0
Al O   1.50 0.00 0.00 6.0
O O    1.50 0.00 0.00 6.0
Mg Mg  1.50 0.00 0.00 6.0
Mg Al  1.50 0.00 0.00 6.0
Al Al  1.50 0.00 0.00 6.0
buck
Mg O 1428.5 0.2945 0.0 0.0 7.0
Al O 1114.9 0.3118 0.0 0.0 7.0
O O  2023.8 0.2674 0.0 0.0 7.0
maxcyc 850
switch rfo 0.010
