opti conjugate nosymmetry conp 
pressure 100 GPa
vectors
 3.233941825      0.000000000      0.000000000
 0.000000000      3.233941825      0.000000000
 0.000000000      0.000000000     19.265372029
frac
Al     -0.000000000      0.533867655      0.266933828
Al      0.533867655     -0.000000000      0.266933828
Al     -0.000000000      0.533867655      0.800801483
Al      0.533867655     -0.000000000      0.800801483
Al     -0.000000000      0.533867655     -0.000000000
Al      0.533867655     -0.000000000     -0.000000000
Al      0.533867655     -0.000000000      0.533867655
Al     -0.000000000      0.533867655      0.533867655
Mg     -0.000000000     -0.000000000      0.533867655
Mg      0.533867655      0.533867655     -0.000000000
Mg     -0.000000000     -0.000000000     -0.000000000
Mg      0.533867655      0.533867655      0.533867655
O       0.868630640      0.748920286      0.657793488
O       0.199104670      0.318815024      0.657793488
O       0.318815024      0.868630640      0.657793488
O       0.748920286      0.199104670      0.657793488
O       0.732972325      0.215052631      0.943809477
O       0.334762985      0.852682679      0.943809477
O       0.215052631      0.334762985      0.943809477
O       0.852682679      0.732972325      0.943809477
O       0.199104670      0.318815024      0.409941822
O       0.868630640      0.748920286      0.409941822
O       0.748920286      0.199104670      0.409941822
O       0.318815024      0.868630640      0.409941822
O       0.334762985      0.852682679      0.123925833
O       0.732972325      0.215052631      0.123925833
O       0.852682679      0.732972325      0.123925833
O       0.215052631      0.334762985      0.123925833
species
Mg  2.0
Al  3.0
O  -2.0
lennard 12 6
Mg O   1.50 0.00 0.00 6.0
Al O   1.50 0.00 0.00 6.0
O O    1.50 0.00 0.00 6.0
Mg Mg  1.50 0.00 0.00 6.0
Mg Al  1.50 0.00 0.00 6.0
Al Al  1.50 0.00 0.00 6.0
buck
Mg O 1428.5 0.2945 0.0 0.0 7.0
Al O 1114.9 0.3118 0.0 0.0 7.0
O O  2023.8 0.2674 0.0 0.0 7.0
maxcyc 850
switch rfo 0.010
