opti conjugate nosymmetry conp 
pressure 100 GPa
vectors
 6.121582499      0.000000000      0.000000000
 0.000000000      6.121582499      0.000000000
 0.000000000      0.000000000      5.376682515
frac
Al      0.429640904      1.142654687      0.891188963
Al      0.810814249      0.097800466      0.891188963
Al      0.097800466      0.429640904      0.270961386
Al      1.142654687      0.810814249      0.270961386
Al      0.810814249      0.097800466      0.349266190
Al      0.429640904      1.142654687      0.349266190
Al      1.142654687      0.810814249      0.969493767
Al      0.097800466      0.429640904      0.969493767
Mg     -0.000000000      0.620227577      0.240455153
Mg      0.620227577     -0.000000000      0.620227577
Mg     -0.000000000     -0.000000000     -0.000000000
Mg     -0.000000000     -0.000000000      0.620227577
O       0.853915894      0.389220048      1.000000000
O       0.386539259      0.851235105      0.240455153
O       0.851235105      0.853915894      0.620227577
O       0.389220048      0.386539259      0.620227577
O       0.360748701      0.550163280      1.000000000
O       0.879706452      0.690291873      0.240455153
O       0.690291873      0.360748701      0.620227577
O       0.550163280      0.879706452      0.620227577
O       1.048008865      0.610731281      0.297764899
O       0.192446288      0.629723873      0.297764899
O       0.629723873      1.048008865      0.917992476
O       0.610731281      0.192446288      0.917992476
O       0.192446288      0.629723873      0.942690254
O       1.048008865      0.610731281      0.942690254
O       0.610731281      0.192446288      0.322462677
O       0.629723873      1.048008865      0.322462677
species
Mg  2.0
Al  3.0
O  -2.0
lennard 12 6
Mg O   1.50 0.00 0.00 6.0
Al O   1.50 0.00 0.00 6.0
O O    1.50 0.00 0.00 6.0
Mg Mg  1.50 0.00 0.00 6.0
Mg Al  1.50 0.00 0.00 6.0
Al Al  1.50 0.00 0.00 6.0
buck
Mg O 1428.5 0.2945 0.0 0.0 7.0
Al O 1114.9 0.3118 0.0 0.0 7.0
O O  2023.8 0.2674 0.0 0.0 7.0
maxcyc 850
switch rfo 0.010
