opti conjugate nosymmetry conp 
pressure 100 GPa
vectors
 5.039855932      0.000000000      0.000000000
 0.000000000      5.039855932      0.000000000
 0.000000000      0.000000000      7.932417469
frac
Al     -0.000000000      0.636419709      0.318209855
Al      0.636419709     -0.000000000      0.318209855
Al      0.636419709     -0.000000000      0.954629564
Al     -0.000000000      0.636419709      0.954629564
Al     -0.000000000      0.636419709     -0.000000000
Al      0.636419709     -0.000000000     -0.000000000
Al      0.636419709     -0.000000000      0.636419709
Al     -0.000000000      0.636419709      0.636419709
Mg     -0.000000000     -0.000000000      0.636419709
Mg      0.636419709      0.636419709     -0.000000000
Mg     -0.000000000     -0.000000000     -0.000000000
Mg      0.636419709      0.636419709      0.636419709
O       0.308048606      0.977273085      0.469309646
O       0.964790813      0.295566334      0.469309646
O       0.295566334      0.308048606      0.469309646
O       0.977273085      0.964790813      0.469309646
O       0.964790813      0.295566334      0.803529773
O       0.308048606      0.977273085      0.803529773
O       0.977273085      0.964790813      0.803529773
O       0.295566334      0.308048606      0.803529773
O       0.944468315      0.340853375      0.105729355
O       0.328371104      0.931986043      0.105729355
O       0.931986043      0.944468315      0.105729355
O       0.340853375      0.328371104      0.105729355
O       0.328371104      0.931986043      0.167110063
O       0.944468315      0.340853375      0.167110063
O       0.340853375      0.328371104      0.167110063
O       0.931986043      0.944468315      0.167110063
species
Mg  2.0
Al  3.0
O  -2.0
lennard 12 6
Mg O   1.50 0.00 0.00 6.0
Al O   1.50 0.00 0.00 6.0
O O    1.50 0.00 0.00 6.0
Mg Mg  1.50 0.00 0.00 6.0
Mg Al  1.50 0.00 0.00 6.0
Al Al  1.50 0.00 0.00 6.0
buck
Mg O 1428.5 0.2945 0.0 0.0 7.0
Al O 1114.9 0.3118 0.0 0.0 7.0
O O  2023.8 0.2674 0.0 0.0 7.0
maxcyc 850
switch rfo 0.010
