opti conjugate nosymmetry conp 
pressure 100 GPa
vectors
 6.878418289      0.000000000      0.000000000
 0.000000000      6.878418289      0.000000000
 0.000000000      0.000000000      4.258578345
frac
Al      0.184518884      0.184518884      0.232591242
Al      0.745846085      0.745846085      0.232591242
Al      0.745846085      0.184518884      0.697773727
Al      0.184518884      0.745846085      0.697773727
Al      0.745846085      0.745846085      0.697773727
Al      0.184518884      0.184518884      0.697773727
Al      0.184518884      0.745846085      0.232591242
Al      0.745846085      0.184518884      0.232591242
Mg     -0.000000000      0.465182485      0.196874122
Mg      0.465182485     -0.000000000      0.662056607
Mg     -0.000000000      0.465182485      0.733490847
Mg      0.465182485     -0.000000000      0.268308363
O       0.465182485      0.465182485      0.232591242
O       0.465182485      0.465182485      0.697773727
O      -0.000000000      0.465182485      0.465182485
O       0.465182485     -0.000000000     -0.000000000
O      -0.000000000     -0.000000000     -0.000000000
O      -0.000000000     -0.000000000      0.465182485
O      -0.000000000      0.750554136      0.566182360
O      -0.000000000      0.179810834      0.566182360
O       0.179810834     -0.000000000      0.100999875
O       0.750554136      0.000000000      0.100999875
O      -0.000000000      0.750554136      0.364182609
O      -0.000000000      0.179810834      0.364182609
O       0.750554136      0.000000000      0.829365094
O       0.179810834     -0.000000000      0.829365094
O       0.465182485      0.465182485     -0.000000000
O       0.465182485      0.465182485      0.465182485
species
Mg  2.0
Al  3.0
O  -2.0
lennard 12 6
Mg O   1.50 0.00 0.00 6.0
Al O   1.50 0.00 0.00 6.0
O O    1.50 0.00 0.00 6.0
Mg Mg  1.50 0.00 0.00 6.0
Mg Al  1.50 0.00 0.00 6.0
Al Al  1.50 0.00 0.00 6.0
buck
Mg O 1428.5 0.2945 0.0 0.0 7.0
Al O 1114.9 0.3118 0.0 0.0 7.0
O O  2023.8 0.2674 0.0 0.0 7.0
maxcyc 850
switch rfo 0.010
