opti conjugate nosymmetry conp 
pressure 100 GPa
vectors
 5.235215738      0.000000000      0.000000000
 0.000000000      6.037803834      0.000000000
 0.000000000      0.000000000      6.374237255
frac
Al      0.962491143      0.530166000      0.869549302
Al      0.952993015      0.108328719      0.869549302
Al      0.314498296      1.168660720      0.045934856
Al      0.323996424      0.746823439      0.045934856
Al      0.314498296      0.746823439      0.407440137
Al      0.323996424      1.168660720      0.407440137
Al      0.962491143      0.108328719      0.231054583
Al      0.952993015      0.530166000      0.231054583
Mg      0.319247360      0.957742079      0.079291949
Mg      0.957742079      0.319247360      0.559202770
Mg      0.957742079      0.319247360      0.197697490
Mg      0.319247360      0.957742079      0.717786669
O      -0.000000000     -0.000000000     -0.000000000
O       0.638494720      0.638494720      0.000000000
O      -0.000000000      0.638494720      0.638494720
O       0.638494720      1.276989439      0.638494720
O       0.105101914      0.830993782      0.268239816
O       0.533392805      1.084490377      0.268239816
O       1.171887525      0.192499062      0.647244342
O       0.743596634      0.445995657      0.647244342
O       1.171887525      0.445995657      0.008749623
O       0.743596634      0.192499062      0.008749623
O       0.105101914      1.084490377      0.629745097
O       0.533392805      0.830993782      0.629745097
O      -0.000000000     -0.000000000      0.638494720
O       0.638494720      0.638494720      0.638494720
O      -0.000000000      0.638494720     -0.000000000
O       0.638494720      1.276989439      0.000000000
species
Mg  2.0
Al  3.0
O  -2.0
lennard 12 6
Mg O   1.50 0.00 0.00 6.0
Al O   1.50 0.00 0.00 6.0
O O    1.50 0.00 0.00 6.0
Mg Mg  1.50 0.00 0.00 6.0
Mg Al  1.50 0.00 0.00 6.0
Al Al  1.50 0.00 0.00 6.0
buck
Mg O 1428.5 0.2945 0.0 0.0 7.0
Al O 1114.9 0.3118 0.0 0.0 7.0
O O  2023.8 0.2674 0.0 0.0 7.0
maxcyc 850
switch rfo 0.010
