opti conjugate nosymmetry conp 
pressure 100 GPa
vectors
 4.474506662     -2.583357626      0.000000000
 0.000000000      5.166715251      0.000000000
 0.000000000      0.000000000      8.715295563
frac
Al      1.193958481      0.152684759      0.264325673
Al      1.193958481      1.041273721      0.264325673
Al     -1.041273721      0.152684759      0.264325673
Al      0.152684759      1.193958481      0.082317567
Al      1.041273721      1.193958481      0.082317567
Al      0.152684759     -1.041273721      0.082317567
Al     -0.000000000     -0.000000000      0.503301963
Al     -0.000000000     -0.000000000      0.843341276
Mg      0.673321620     -0.000000000      0.346643240
Mg     -0.000000000      0.673321620      0.346643240
Mg      0.673321620      0.673321620      0.346643240
Mg     -0.000000000     -0.000000000     -0.000000000
O       0.211797224      1.346643240      0.673321620
O      -0.000000000      0.211797224      0.673321620
O       1.134846016      1.134846016      0.673321620
O       1.134846016      1.346643240      0.673321620
O      -0.000000000      1.134846016      0.673321620
O       0.211797224      0.211797224      0.673321620
O      -0.000000000     -0.000000000      0.673321620
O       0.952551010     -0.000000000     -0.000000000
O      -0.000000000      0.952551010      0.346643240
O       0.394092230      0.394092230      0.000000000
O       0.394092230     -0.000000000      0.000000000
O      -0.000000000      0.394092230      0.000000000
O       0.952551010      0.952551010     -0.000000000
O       0.673321620     -0.000000000      0.673321620
O      -0.000000000      0.673321620      0.673321620
O       0.673321620      0.673321620      0.673321620
species
Mg  2.0
Al  3.0
O  -2.0
lennard 12 6
Mg O   1.50 0.00 0.00 6.0
Al O   1.50 0.00 0.00 6.0
O O    1.50 0.00 0.00 6.0
Mg Mg  1.50 0.00 0.00 6.0
Mg Al  1.50 0.00 0.00 6.0
Al Al  1.50 0.00 0.00 6.0
buck
Mg O 1428.5 0.2945 0.0 0.0 7.0
Al O 1114.9 0.3118 0.0 0.0 7.0
O O  2023.8 0.2674 0.0 0.0 7.0
maxcyc 850
switch rfo 0.010
