opti conjugate nosymmetry conp 
pressure 100 GPa
vectors
 5.862469579      0.000000000      0.000000000
 0.000000000      5.862469579      0.000000000
 0.000000000      0.000000000      5.862469579
frac
Al     -0.000000000     -0.000000000     -0.000000000
Al     -0.000000000      0.624548760      0.624548760
Al      0.624548760     -0.000000000      0.624548760
Al      0.624548760      0.624548760     -0.000000000
Al      0.624548760      0.624548760      0.624548760
Al      0.624548760     -0.000000000     -0.000000000
Al     -0.000000000      0.624548760     -0.000000000
Al     -0.000000000     -0.000000000      0.624548760
Mg      0.312274380      0.312274380      0.312274380
Mg      0.312274380      0.936823140      0.936823140
Mg      0.936823140      0.312274380      0.936823140
Mg      0.936823140      0.936823140      0.312274380
O       0.860088543      0.860088543      0.860088543
O       0.389008977      0.389008977      0.860088543
O       0.389008977      0.860088543      0.389008977
O       0.860088543      0.389008977      0.389008977
O       0.860088543      0.235539783      0.235539783
O       0.389008977      1.013557737      0.235539783
O       0.389008977      0.235539783      0.013557737
O       0.860088543      1.013557737      0.013557737
O       0.235539783      0.860088543      0.235539783
O       1.013557737      0.389008977      0.235539783
O       1.013557737      0.860088543      0.013557737
O       0.235539783      0.389008977      0.013557737
O       0.235539783      0.235539783      0.860088543
O       1.013557737      1.013557737      0.860088543
O       1.013557737      0.235539783      0.389008977
O       0.235539783      1.013557737      0.389008977
species
Mg  2.0
Al  3.0
O  -2.0
lennard 12 6
Mg O   1.50 0.00 0.00 6.0
Al O   1.50 0.00 0.00 6.0
O O    1.50 0.00 0.00 6.0
Mg Mg  1.50 0.00 0.00 6.0
Mg Al  1.50 0.00 0.00 6.0
Al Al  1.50 0.00 0.00 6.0
buck
Mg O 1428.5 0.2945 0.0 0.0 7.0
Al O 1114.9 0.3118 0.0 0.0 7.0
O O  2023.8 0.2674 0.0 0.0 7.0
maxcyc 850
switch rfo 0.010
