opti conjugate nosymmetry conp 
pressure 100 GPa
vectors
 5.424779537      0.000000000      0.000000000
 0.000000000      5.747200135      0.000000000
 0.000000000      0.000000000      6.462542203
frac
Al     -0.000000000      0.584587251      0.024794210
Al      0.584587251     -0.000000000      0.024794210
Al     -0.000000000     -0.000000000      0.018501262
Al      0.584587251      0.584587251      0.018501262
Al      1.016054194     -0.000000000      0.170185839
Al      0.153120307     -0.000000000      0.170185839
Al      0.431466943      0.584587251      0.170185839
Al      0.737707558      0.584587251      0.170185839
Mg     -0.000000000     -0.000000000      0.481848701
Mg      0.584587251      0.584587251      0.481848701
Mg     -0.000000000      0.584587251      0.066914930
Mg      0.584587251     -0.000000000      0.066914930
O       0.416865217      0.648186573      0.378705266
O       0.752309285      0.520987928      0.378705266
O       0.416865217      0.520987928      0.378705266
O       0.752309285      0.648186573      0.378705266
O       1.001452468      0.063599323      0.378705266
O       0.167722034      1.105575179      0.378705266
O       1.001452468      1.105575179      0.378705266
O       0.167722034      0.063599323      0.378705266
O       0.878186917      0.690072542      0.674987833
O       0.290987585      0.479101960      0.674987833
O       0.878186917      0.479101960      0.674987833
O       0.290987585      0.690072542      0.674987833
O       0.293599666      0.105485291      0.674987833
O       0.875574836      1.063689211      0.674987833
O       0.293599666      1.063689211      0.674987833
O       0.875574836      0.105485291      0.674987833
species
Mg  2.0
Al  3.0
O  -2.0
lennard 12 6
Mg O   1.50 0.00 0.00 6.0
Al O   1.50 0.00 0.00 6.0
O O    1.50 0.00 0.00 6.0
Mg Mg  1.50 0.00 0.00 6.0
Mg Al  1.50 0.00 0.00 6.0
Al Al  1.50 0.00 0.00 6.0
buck
Mg O 1428.5 0.2945 0.0 0.0 7.0
Al O 1114.9 0.3118 0.0 0.0 7.0
O O  2023.8 0.2674 0.0 0.0 7.0
maxcyc 850
switch rfo 0.010
