opti conjugate nosymmetry conp 
pressure 100 GPa
vectors
 3.648654298      0.000000000      0.000000000
 0.000000000      3.648654298      0.000000000
 0.000000000      0.000000000     15.134789066
frac
Al      0.718349537      1.009495987      0.408106152
Al      0.306792175      0.015645726      0.408106152
Al      0.015645726      0.718349537      0.408106152
Al      1.009495987      0.306792175      0.408106152
Al      0.306792175      1.009495987      0.617035560
Al      0.718349537      0.015645726      0.617035560
Al      1.009495987      0.718349537      0.617035560
Al      0.015645726      0.306792175      0.617035560
Mg      0.512570856      1.025141712      0.512570856
Mg     -0.000000000      0.512570856      0.512570856
Mg     -0.000000000     -0.000000000      0.798586095
Mg     -0.000000000     -0.000000000      0.226555618
O       0.590262518      0.657772252      0.652049208
O       0.434879194      0.367369460      0.652049208
O       0.367369460      0.590262518      0.652049208
O       0.657772252      0.434879194      0.652049208
O       0.434879194      0.657772252      0.373092504
O       0.590262518      0.367369460      0.373092504
O       0.657772252      0.590262518      0.373092504
O       0.367369460      0.434879194      0.373092504
O       0.841590726      0.032552583      0.160465556
O       0.183550986      0.992589129      0.160465556
O       0.992589129      0.841590726      0.160465556
O       0.032552583      0.183550986      0.160465556
O       0.183550986      0.032552583      0.864676156
O       0.841590726      0.992589129      0.864676156
O       0.032552583      0.841590726      0.864676156
O       0.992589129      0.183550986      0.864676156
species
Mg  2.0
Al  3.0
O  -2.0
lennard 12 6
Mg O   1.50 0.00 0.00 6.0
Al O   1.50 0.00 0.00 6.0
O O    1.50 0.00 0.00 6.0
Mg Mg  1.50 0.00 0.00 6.0
Mg Al  1.50 0.00 0.00 6.0
Al Al  1.50 0.00 0.00 6.0
buck
Mg O 1428.5 0.2945 0.0 0.0 7.0
Al O 1114.9 0.3118 0.0 0.0 7.0
O O  2023.8 0.2674 0.0 0.0 7.0
maxcyc 850
switch rfo 0.010
