opti conjugate nosymmetry conp 
pressure 100 GPa
vectors
 2.832232287     -1.635190073      0.000000000
 0.000000000      3.270380146      0.000000000
 0.000000000      0.000000000     21.752776581
frac
Al      0.533797533      1.067595067      0.180795707
Al     -0.000000000      0.533797533      0.180795707
Al      0.533797533      0.533797533      0.180795707
Al      0.355865022      0.711730044      0.425090887
Al      0.711730044      0.355865022      0.425090887
Al      0.533797533      1.067595067      0.566326306
Al     -0.000000000      0.533797533      0.566326306
Al      0.533797533      0.533797533      0.566326306
Mg      0.355865022      0.711730044      0.246339832
Mg      0.711730044      0.355865022      0.246339832
Mg      0.355865022      0.711730044      0.001807869
Mg      0.711730044      0.355865022      0.001807869
O       0.533797533      1.067595067      0.741224516
O      -0.000000000      0.533797533      0.741224516
O       0.533797533      0.533797533      0.741224516
O       0.533797533      1.067595067      0.667998176
O      -0.000000000      0.533797533      0.667998176
O       0.533797533      0.533797533      0.667998176
O       0.912830062      0.154765005      0.660187170
O       0.912830062      0.758065056      0.660187170
O      -0.758065056      0.154765005      0.660187170
O       0.154765005      0.912830062      0.660187170
O       0.154765005     -0.758065056      0.660187170
O       0.758065056      0.912830062      0.660187170
O      -0.000000000     -0.000000000      0.448992908
O       0.355865022      0.711730044      0.898605573
O       0.711730044      0.355865022      0.898605573
O      -0.000000000     -0.000000000      0.151798409
species
Mg  2.0
Al  3.0
O  -2.0
lennard 12 6
Mg O   1.50 0.00 0.00 6.0
Al O   1.50 0.00 0.00 6.0
O O    1.50 0.00 0.00 6.0
Mg Mg  1.50 0.00 0.00 6.0
Mg Al  1.50 0.00 0.00 6.0
Al Al  1.50 0.00 0.00 6.0
buck
Mg O 1428.5 0.2945 0.0 0.0 7.0
Al O 1114.9 0.3118 0.0 0.0 7.0
O O  2023.8 0.2674 0.0 0.0 7.0
maxcyc 850
switch rfo 0.010
