opti conj conp
switch_minimiser bfgs gnorm 0.5
vectors
 6.062744593      0.018749676      0.378032177
-0.017455784      7.058073857      0.029561067
 0.755064626     -0.011666376      3.179054492
frac
Ti      0.094808269      0.965620556      0.397494112
Ti      0.582344418      0.965618606      0.397495087
Ti      0.800001455      0.312506613      0.964674937
Ti      0.488705488      0.952122189      0.964688254
O       0.286620591      0.445579803      0.205683740
O       0.582345393      0.253768455      0.397493137
O       0.390533071      0.965618606      0.101770285
O       0.582345393      0.637391150      0.397493137
O       0.800016675      0.788132659      0.964673034
O       0.312333485      0.235651949      0.964646399
O       0.312344900      0.711277044      0.964644497
O       0.488702634      0.476489484      0.964678742
species
Ti  2.196
O  -1.098
buck
Ti Ti 31120.1 0.1540 5.25  15
O  O  11782.7 0.2340 30.22 15
Ti O  16957.5 0.1940 12.59 15
lennard 12 6
Ti Ti   1   0 15
O  O    1   0 15
Ti O    1   0 15
