opti conj conp
switch_minimiser bfgs gnorm 0.5
vectors
 5.960922602      0.394768646      0.695444869
-0.408878134      5.728815068     -0.243532455
 0.417448198      0.220461116      3.948384128
frac
Ti      0.687135512      0.555123731      0.006732963
Ti      0.185161907      0.555121849      0.006733904
Ti      0.185162848      0.053147303      0.508705627
Ti      0.687137394      0.053149185      0.508705627
O       0.872284624      0.053148244      0.794159371
O       0.000013736      0.555121849      0.693855680
O       0.687136453      0.338601048      0.508704685
O       0.370309137      0.555121849      0.292186708
O       0.501988282      0.053148244      0.191879252
O       0.185162848      0.238296415      0.006732022
O       0.695692891      0.910417699      0.294199904
O       0.209407044      0.740127835      0.294196014
species
Ti  2.196
O  -1.098
buck
Ti Ti 31120.1 0.1540 5.25  15
O  O  11782.7 0.2340 30.22 15
Ti O  16957.5 0.1940 12.59 15
lennard 12 6
Ti Ti   1   0 15
O  O    1   0 15
Ti O    1   0 15
