opti conj conp
switch_minimiser bfgs gnorm 0.5
vectors
 4.708551305      0.830657446     -2.773632749
 0.087090238      7.124355789     -0.272578788
 0.428458145     -0.235563637      3.761258791
frac
Ti      0.735326916      0.341896097      0.379825991
Ti      0.498341150      0.223411272      0.616811757
Ti      0.524302330      0.854311712      0.350390070
Ti      0.704759957      0.854310795      0.628613543
O       0.932549473      0.243292402      0.182611965
O       0.301125229      0.322014019      0.814041897
O       0.538113838      0.440514011      0.577064663
O       0.695551384      0.124794305      0.419582564
O       0.695550436      0.598764889      0.419582564
O       0.035042323      0.854309878      0.350390070
O       0.035042323      0.673852251      0.809070251
O       0.343842869      0.854310795      0.041588607
species
Ti  2.196
O  -1.098
buck
Ti Ti 31120.1 0.1540 5.25  15
O  O  11782.7 0.2340 30.22 15
Ti O  16957.5 0.1940 12.59 15
lennard 12 6
Ti Ti   1   0 15
O  O    1   0 15
Ti O    1   0 15
