opti conj conp
switch_minimiser bfgs gnorm 0.5
vectors
 6.922830574      0.364300630      1.697642123
 0.001320955      6.255536404     -0.041480078
 1.021676329     -0.511887251      3.349185735
frac
Ti      0.889471731      0.352601597      0.366431014
Ti      0.463750995      0.566970648      0.375853738
Ti      0.891652568      0.775538442      0.052233445
Ti      0.273910933      0.131801101      0.588431230
O       0.801644620      0.067502444      0.311706978
O       0.472031475      0.225278618      0.196726719
O       0.551581247      0.852069801      0.430573586
O       0.780509853      0.837707797      0.588430217
O       0.780508840      0.131799075      0.588432244
O       0.780509853      0.439086167      0.588430217
O       0.074601131      0.638396982      0.787740019
O       0.979818642      0.131799075      0.895720350
species
Ti  2.196
O  -1.098
buck
Ti Ti 31120.1 0.1540 5.25  15
O  O  11782.7 0.2340 30.22 15
Ti O  16957.5 0.1940 12.59 15
lennard 12 6
Ti Ti   1   0 15
O  O    1   0 15
Ti O    1   0 15
