opti conj conp
switch_minimiser bfgs gnorm 0.5
vectors
 6.048528953      0.112842026      1.156085330
-0.011582023      5.629388902     -1.078418049
 0.343624482     -0.727776487      4.142055443
frac
Ti      0.148070991      0.198717819      0.604899701
Ti      0.346011278      0.641304930      0.225258741
Ti      1.084555125      0.823283618      0.793051759
Ti      1.075787431      0.076508697      0.982718402
O       0.594432216      0.534569923      0.550650793
O       0.226024395      1.065528527      0.161545875
O       0.268076990      0.883088232      0.668632744
O       0.037515146      0.534581605      0.948358956
O       0.503160034      0.305447516      0.990379692
O       0.750254240      0.204430113      0.263637819
O       0.743524101      0.830193346      0.583253455
O       1.073478276      0.737259562      0.206829062
species
Ti  2.196
O  -1.098
buck
Ti Ti 31120.1 0.1540 5.25  15
O  O  11782.7 0.2340 30.22 15
Ti O  16957.5 0.1940 12.59 15
lennard 12 6
Ti Ti   1   0 15
O  O    1   0 15
Ti O    1   0 15
