opti conj conp
switch_minimiser bfgs gnorm 0.5
vectors
 4.452732832      0.950848799     -3.148582950
 0.532241547      6.753783764     -1.199136852
 0.930231116     -0.659632717      3.981535677
frac
Ti      0.050621759      0.145162470      0.929052830
Ti      0.442544403      0.336193414      0.632643260
Ti      0.463953690      0.725637248      0.664252768
Ti      0.224205833      0.605764279      0.903972816
O       0.379783847      0.026369264      0.540492221
O       0.727966465      0.255817172      0.307033077
O       0.432965574      0.261777929      0.125544522
O       0.111387725      0.067611258      0.350041434
O       0.064941619      0.925147120      0.104344370
O       0.784141080      0.805272232      0.344071131
O       0.024707469      0.705525447      0.144552629
O       0.264442860      0.825384992      0.863754967
species
Ti  2.196
O  -1.098
buck
Ti Ti 31120.1 0.1540 5.25  15
O  O  11782.7 0.2340 30.22 15
Ti O  16957.5 0.1940 12.59 15
lennard 12 6
Ti Ti   1   0 15
O  O    1   0 15
Ti O    1   0 15
