opti conj conp
switch_minimiser bfgs gnorm 0.5
vectors
 7.041748841      0.027521807      1.785557033
-0.033214441      6.565663126      0.029752774
 0.599074112     -0.010796269      3.050624973
frac
Ti      0.044970911      0.909232556      0.377637524
Ti      0.561101028      0.909234492      0.377637524
Ti      0.417517078      0.281782595      0.717927328
Ti      0.901387928      0.281780659      0.717928295
O       0.561099093      0.615732950      0.377640427
O       0.854600634      0.425362674      0.568008768
O       0.561100060      0.202736034      0.377636556
O       0.235338284      0.425362674      0.155012819
O       0.370730752      0.909233524      0.051876715
O       0.227148737      0.765651510      0.908294701
O       0.901388896      0.956020818      0.717926360
O       0.901388896      0.575282201      0.717926360
species
Ti  2.196
O  -1.098
buck
Ti Ti 31120.1 0.1540 5.25  15
O  O  11782.7 0.2340 30.22 15
Ti O  16957.5 0.1940 12.59 15
lennard 12 6
Ti Ti   1   0 15
O  O    1   0 15
Ti O    1   0 15
