opti conj conp
switch_minimiser bfgs gnorm 0.5
vectors
 6.466229952      0.024292915      1.410021779
-0.007036369      7.049932948      0.028146205
 0.817480186     -0.011687344      3.118198690
frac
Ti      1.052220556      0.908482280      0.311378419
Ti      0.505657057      0.908480231      0.311379444
Ti      0.923637612      0.234283121      0.728971827
Ti      0.191851759      0.465823597      0.728958830
O       0.194849770      0.361916731      0.109784716
O       0.505658082      0.160322003      0.311377395
O       0.304062329      0.908480231      0.000571132
O       0.505658082      0.563511459      0.311377395
O       0.923630614      0.793363202      0.728963829
O       0.191854758      0.965711056      0.728953831
O       0.436397281      0.712587549      0.728935836
O       0.436405279      0.153508468      0.728920839
species
Ti  2.196
O  -1.098
buck
Ti Ti 31120.1 0.1540 5.25  15
O  O  11782.7 0.2340 30.22 15
Ti O  16957.5 0.1940 12.59 15
lennard 12 6
Ti Ti   1   0 15
O  O    1   0 15
Ti O    1   0 15
