opti conj conp
switch_minimiser bfgs gnorm 0.5
vectors
 4.937003277     -0.764949349     -0.291392872
-1.685728442      6.027097439     -1.411913053
 0.154097884     -0.880905619      4.923749701
frac
Ti      0.109944510      0.055945033      0.070450969
Ti      0.467802286      0.274027398      0.358861687
Ti      0.885853515      0.152226587      0.776927285
Ti      0.418865470      0.534913911      0.259147870
O       0.525267555      0.849267291      0.825864101
O       0.707299178      0.752985738      0.119386827
O       0.167414568      0.631184927      0.537439014
O       0.815551984      0.370330026      0.176877960
O       0.216354259      0.370301288      0.637149000
O       0.777617952      0.534902415      0.719454353
O       0.607570992      0.055955570      0.429208241
O       0.027611377      0.849262502      0.467113535
species
Ti  2.196
O  -1.098
buck
Ti Ti 31120.1 0.1540 5.25  15
O  O  11782.7 0.2340 30.22 15
Ti O  16957.5 0.1940 12.59 15
lennard 12 6
Ti Ti   1   0 15
O  O    1   0 15
Ti O    1   0 15
