opti conj conp
switch_minimiser bfgs gnorm 0.5
vectors
12.996526742      0.931370142      4.977184935
-4.632126293      4.961917063    -11.468809617
 5.225536023     -5.364269087     14.458767257
frac
Ti      0.253287214      0.269647790      0.042752993
Ti      0.167522233      0.098130520      0.128510084
Ti      0.317228376      0.054513068      0.278221372
Ti      0.059951957      0.226030337      0.192459478
O       0.188100820      0.304126674      0.295745880
O       0.039371654      0.020034184      0.025228828
O       0.278468703      0.191551110      0.257640041
O       0.292053061      0.132616951      0.063340842
O       0.077477494      0.132606660      0.228166100
O       0.149997726      0.191555227      0.092802090
O       0.217574075      0.020037957      0.153701521
O       0.009887766      0.304124959      0.167275588
species
Ti  2.196
O  -1.098
buck
Ti Ti 31120.1 0.1540 5.25  15
O  O  11782.7 0.2340 30.22 15
Ti O  16957.5 0.1940 12.59 15
lennard 12 6
Ti Ti   1   0 15
O  O    1   0 15
Ti O    1   0 15
