opti conj conp
switch_minimiser bfgs gnorm 0.5
vectors
11.189100648     -1.084556305     -0.014299727
-0.861740940      7.191674222     -0.775254488
-2.397354468     -1.819424192      1.912294089
frac
Ti      0.164223103      0.053289232      0.424538275
Ti      0.020192735      0.341342480      0.424534818
Ti      0.452276352      0.053286351      0.424533666
Ti      0.308251168      0.341345360      0.424539427
O       0.427804831      0.226260024      0.021397385
O       0.073611015      0.226261176      0.021399114
O       0.361668873      0.226265209      0.243319284
O       0.139753311      0.226266361      0.375600419
O       0.283781376      0.514322490      0.021401994
O       0.571834048      0.514316729      0.375591201
O       0.217638504      0.514316729      0.243312946
O       0.505696937      0.514321914      0.021401418
species
Ti  2.196
O  -1.098
buck
Ti Ti 31120.1 0.1540 5.25  15
O  O  11782.7 0.2340 30.22 15
Ti O  16957.5 0.1940 12.59 15
lennard 12 6
Ti Ti   1   0 15
O  O    1   0 15
Ti O    1   0 15
