opti conj conp
switch_minimiser bfgs gnorm 0.5
vectors
 5.438200924     -2.430874314     -0.075881755
-4.038664420      5.107930696     -0.462948371
 1.075225933      0.771191317      7.250377527
frac
Ti      0.902369531      0.960656265      0.152313248
Ti      0.596820331      0.349603084      0.457834339
Ti      1.130168457      0.194210085      0.991200797
Ti      0.213586853      0.805263266      0.685662597
O       0.670134296      1.083491895      0.053634197
O       0.140266777      0.071374455      0.089881071
O       0.992081948      0.682426414      0.917877055
O       1.040478038      0.472465601      0.225660210
O       0.276023919      0.472428938      0.812872207
O       0.534386931      0.682441079      0.330619841
O       0.775136700      0.071387898      0.547582198
O       0.035226487      1.083485785      0.595941624
species
Ti  2.196
O  -1.098
buck
Ti Ti 31120.1 0.1540 5.25  15
O  O  11782.7 0.2340 30.22 15
Ti O  16957.5 0.1940 12.59 15
lennard 12 6
Ti Ti   1   0 15
O  O    1   0 15
Ti O    1   0 15
