opti conj conp
switch_minimiser bfgs gnorm 0.5
vectors
28.964636917     -1.203692885      5.139482541
-12.051737079      5.600930312     -1.530937954
 6.346635064     -0.122022036      2.050304382
frac
Ti      0.202341408      0.215411242      0.034153721
Ti      0.133827065      0.078392696      0.102661761
Ti      0.253421541      0.043548392      0.222260347
Ti      0.047893311      0.180566938      0.153748471
O       0.150266507      0.242955096      0.236260002
O       0.031452499      0.016004538      0.020154340
O       0.222457931      0.153022810      0.205818713
O       0.233309951      0.105942579      0.050600561
O       0.061893788      0.105934358      0.182273117
O       0.119827410      0.153026099      0.074136018
O       0.173811555      0.016007553      0.122786230
O       0.007898956      0.242953726      0.133630030
species
Ti  2.196
O  -1.098
buck
Ti Ti 31120.1 0.1540 5.25  15
O  O  11782.7 0.2340 30.22 15
Ti O  16957.5 0.1940 12.59 15
lennard 12 6
Ti Ti   1   0 15
O  O    1   0 15
Ti O    1   0 15
