opti conj conp
switch_minimiser bfgs gnorm 0.5
vectors
 5.204102924     -0.859176420     -0.774279903
-1.493723996      5.646177984     -1.251398206
 0.718758309     -0.763276331      4.838568782
frac
Ti      0.338911411      0.383538804      0.700350659
Ti      0.756460462      0.380561131      0.170636140
Ti      0.429861924      0.840248125      0.408226421
Ti      0.212330332      0.084057393      0.348957191
O       0.516751006      0.562902040      0.437751791
O       0.438704066      0.124201841      0.820193302
O       0.703638668      0.147554339      0.354343105
O       0.007699412      0.196483890      0.884037322
O       0.716966655      0.594004223      0.936481107
O       0.270121360      0.668131849      0.965912699
O       0.070823183      0.653846752      0.490003187
O       0.066354739      0.869918511      0.906797186
species
Ti  2.196
O  -1.098
buck
Ti Ti 31120.1 0.1540 5.25  15
O  O  11782.7 0.2340 30.22 15
Ti O  16957.5 0.1940 12.59 15
lennard 12 6
Ti Ti   1   0 15
O  O    1   0 15
Ti O    1   0 15
