opti conj conp
switch_minimiser bfgs gnorm 0.5
vectors
 3.439084133     -3.392769979     -1.962416351
-2.317108187      8.993658838      0.079120360
 0.871987227     -0.761628709      5.294005300
frac
Ti      0.196468441      0.063752615      0.507896704
Ti      0.024157594      0.408365349      0.507892569
Ti      0.541081175      0.063749169      0.507891190
Ti      0.368776531      0.408368795      0.507898083
O       0.511804652      0.270686360      0.025598779
O       0.088064597      0.270687738      0.025600847
O       0.432682845      0.270692563      0.291095219
O       0.167193986      0.270693942      0.449349862
O       0.339502076      0.615310121      0.025604293
O       0.684114120      0.615303229      0.449338834
O       0.260371998      0.615303229      0.291087638
O       0.604990935      0.615309432      0.025603604
species
Ti  2.196
O  -1.098
buck
Ti Ti 31120.1 0.1540 5.25  15
O  O  11782.7 0.2340 30.22 15
Ti O  16957.5 0.1940 12.59 15
lennard 12 6
Ti Ti   1   0 15
O  O    1   0 15
Ti O    1   0 15
