opti conj conp
switch_minimiser bfgs gnorm 0.5
vectors
 4.024531762     -4.662404599      0.646113065
-4.263034897     11.402911516     -0.571717695
-0.641642291     -0.699374385      5.023591942
frac
Ti      0.159795191      0.081136427      0.333884328
Ti      0.440200600      0.081135305      0.333884889
Ti      0.440201160      0.361540153      0.053478359
Ti      0.159796313      0.361541274      0.053478359
O       0.270115652      0.361540714      0.223564989
O       0.159795191      0.191455766      0.053480041
O       0.440201160      0.251220814      0.333883767
O       0.329880700      0.081135305      0.163799380
O       0.159795752      0.531626783      0.053477798
O       0.550519939      0.081135305      0.503970958
O       0.049475852      0.361540714      0.444203106
O       0.440201160      0.471860613      0.333883767
species
Ti  2.196
O  -1.098
buck
Ti Ti 31120.1 0.1540 5.25  15
O  O  11782.7 0.2340 30.22 15
Ti O  16957.5 0.1940 12.59 15
lennard 12 6
Ti Ti   1   0 15
O  O    1   0 15
Ti O    1   0 15
