opti conj conp
switch_minimiser bfgs gnorm 0.5
vectors
 5.182923500      0.128561887      0.750077121
-0.223799192      7.006399058      0.345600966
 0.611723677     -0.166268719      3.766585109
frac
Ti      0.023948657      0.977402762      0.587173173
Ti      0.161117654      0.729796020      0.389438363
Ti      0.219942373      0.237127665      0.545876643
Ti      0.653786994      0.072676610      0.882109673
O       0.781881023      0.615494763      0.517387546
O       0.091851301      0.679647208      0.910593844
O       0.849781696      0.317740193      0.840812158
O       0.357114327      0.484733422      0.348139862
O       0.584521626      0.122825422      0.417925489
O       0.289208727      0.186977868      0.024722147
O       0.516617011      0.810408548      0.094501862
O       0.712611713      0.565345950      0.053203362
species
Ti  2.196
O  -1.098
buck
Ti Ti 31120.1 0.1540 5.25  15
O  O  11782.7 0.2340 30.22 15
Ti O  16957.5 0.1940 12.59 15
lennard 12 6
Ti Ti   1   0 15
O  O    1   0 15
Ti O    1   0 15
