opti conj conp
switch_minimiser bfgs gnorm 0.5
vectors
 6.609236515      0.234813405     -0.476346248
 0.182493385      4.434425750     -0.770987011
 0.349580874     -0.058782536      4.566638959
frac
Ti      0.705332782      0.513491850      0.705332782
Ti      0.255154129      0.063308695      0.705332782
Ti      0.705332782      0.063309595      0.255154129
Ti      0.255154129      0.513485548      0.255154129
O       0.142609465      0.513484647      0.817879246
O       0.367698792      0.513484647      0.592786318
O       0.592787219      0.063306894      0.817877446
O       0.817878346      0.063306894      0.592788119
O       0.367699692      0.063307794      0.142610366
O       0.142608565      0.063307794      0.367697892
O       0.817877446      0.513487348      0.142608565
O       0.592788119      0.513487348      0.367699692
species
Ti  2.196
O  -1.098
buck
Ti Ti 31120.1 0.1540 5.25  15
O  O  11782.7 0.2340 30.22 15
Ti O  16957.5 0.1940 12.59 15
lennard 12 6
Ti Ti   1   0 15
O  O    1   0 15
Ti O    1   0 15
