opti conj conp
switch_minimiser bfgs gnorm 0.5
vectors
 3.118572810      0.270354205      0.995652588
 0.132435147      6.879577849     -0.343884020
-0.782888271     -0.781376905      6.047555785
frac
Ti      0.631732282      0.244711204      0.282023147
Ti      0.398607468      0.128156723      0.515147961
Ti      0.746284237      0.508758976      0.794856996
Ti      0.042511214      0.508758976      0.508758976
O       0.825741706      0.147713952      0.088022116
O       0.204604571      0.225153043      0.709164845
O       0.437732183      0.341722443      0.476048424
O       0.592604769      0.031146416      0.321132010
O       0.592603837      0.497395111      0.321132010
O       0.271271949      0.508758976      0.222657227
O       0.042529864      0.508754314      0.042509349
O       0.734462991      0.780295146      0.234898096
species
Ti  2.196
O  -1.098
buck
Ti Ti 31120.1 0.1540 5.25  15
O  O  11782.7 0.2340 30.22 15
Ti O  16957.5 0.1940 12.59 15
lennard 12 6
Ti Ti   1   0 15
O  O    1   0 15
Ti O    1   0 15
