opti conj conp
switch_minimiser bfgs gnorm 0.5
vectors
 7.201620566      0.019075849      0.814817305
-0.010737476      4.243784392      0.009644970
-0.387149064     -0.007467790      4.341475693
frac
Ti      0.174304348      0.014575543      0.649371688
Ti      0.170155758      0.014598395      0.171220280
Ti      0.764468928      0.342138287      0.482485740
Ti      0.475691079      0.154832833      0.295181239
O       0.357872547      0.478504439      0.264934422
O       0.171966779      0.920637288      0.886248839
O       0.172505705      0.920622054      0.410433096
O       0.951773429      0.053361390      0.771267397
O       0.951774381      0.630917088      0.771263588
O       0.475691079      0.342137335      0.771264541
O       0.951773429      0.818223493      0.295182191
O       0.475690127      0.818221589      0.295183143
species
Ti  2.196
O  -1.098
buck
Ti Ti 31120.1 0.1540 5.25  15
O  O  11782.7 0.2340 30.22 15
Ti O  16957.5 0.1940 12.59 15
lennard 12 6
Ti Ti   1   0 15
O  O    1   0 15
Ti O    1   0 15
