opti conj conp
switch_minimiser bfgs gnorm 0.5
vectors
 5.734004699     -0.659898677      0.111291991
-1.473404576      6.585139309     -1.222314620
 0.557710051     -0.187643564      3.677070603
frac
Ti      0.234970627      0.109666842      0.512295449
Ti      0.234972414      0.556353095      0.065607408
Ti      0.573238239      0.392522020      0.471639247
Ti      0.703587802      0.189146255      0.537245082
O       0.410711645      0.556352202      0.336556218
O       0.234970627      0.285406073      0.065610089
O       0.234971520      0.827300118      0.065606515
O       0.059231396      0.556352202      0.688033786
O       0.626830869      0.035621669      0.013795642
O       0.862175139      0.635816428      0.807931239
O       0.527599319      0.635827148      0.378645237
O       0.796595213      0.839202913      0.248302821
species
Ti  2.196
O  -1.098
buck
Ti Ti 31120.1 0.1540 5.25  15
O  O  11782.7 0.2340 30.22 15
Ti O  16957.5 0.1940 12.59 15
lennard 12 6
Ti Ti   1   0 15
O  O    1   0 15
Ti O    1   0 15
