opti conj conp
switch_minimiser bfgs gnorm 0.5
vectors
 7.030192050      0.051858952      1.810657933
-0.012874629      6.551705170     -0.053291379
 0.598436074     -0.012243165      3.064019224
frac
Ti      0.168676320      0.787971914      0.197010587
Ti      0.001174679      0.313645243      0.871964990
Ti      0.477128585      0.825723401      0.293421952
Ti      0.961639700      0.635100843      0.777934036
O       0.016534681      0.594639964      0.147446939
O       0.244233073      0.745805796      0.566224299
O       0.274041225      0.072454159      0.328587596
O       0.477127616      0.150589728      0.293420983
O       0.961638731      0.341210348      0.777935974
O       0.667749205      0.825722432      0.587314385
O       0.961639700      0.047319854      0.777934036
O       0.961639700      0.825721463      0.293421952
species
Ti  2.196
O  -1.098
buck
Ti Ti 31120.1 0.1540 5.25  15
O  O  11782.7 0.2340 30.22 15
Ti O  16957.5 0.1940 12.59 15
lennard 12 6
Ti Ti   1   0 15
O  O    1   0 15
Ti O    1   0 15
