opti conj conp
switch_minimiser bfgs gnorm 0.5
vectors
 6.338628234      0.022011098      0.959713388
-0.011880128      7.018703387      0.028668793
 0.784191794     -0.011619435      3.131194610
frac
Ti      0.700821222      0.194327754      0.207374378
Ti      0.229057849      0.441227962      0.701167881
Ti      0.574543829      0.735550631      0.492564411
Ti      0.185979599      0.735550631      0.881125677
O       0.893482632      0.270973957      0.701180720
O       0.036389525      0.517884041      0.207360552
O       0.036405327      0.024066835      0.207358576
O       0.517704292      0.438090254      0.207330923
O       0.412166878      0.191180169      0.701130351
O       0.874077932      0.735549644      0.193028332
O       0.874077932      0.929832746      0.686844550
O       0.380262702      0.735551619      0.193028332
species
Ti  2.196
O  -1.098
buck
Ti Ti 31120.1 0.1540 5.25  15
O  O  11782.7 0.2340 30.22 15
Ti O  16957.5 0.1940 12.59 15
lennard 12 6
Ti Ti   1   0 15
O  O    1   0 15
Ti O    1   0 15
