opti conj conp
switch_minimiser bfgs gnorm 0.5
vectors
 6.464922051      0.023542938      1.235096383
-0.009078860      7.007804294      0.028254785
 0.799909334     -0.011610603      3.111028665
frac
Ti      0.964449652      0.451665233      0.464873904
Ti      0.486829696      0.201683378      0.964795618
Ti      0.394578566      0.557585169      0.311580914
Ti      0.697833062      0.557584169      0.008324419
O       0.159597612      0.029313717      0.964805617
O       0.779070299      0.198503698      0.464827909
O       0.291781315      0.279289572      0.464857906
O       0.672210048      0.448478553      0.964762621
O       0.001188136      0.557585169      0.704968344
O       0.697833062      0.754280384      0.508274129
O       0.197883351      0.860840665      0.008323419
O       0.197884351      0.557586169      0.008324419
species
Ti  2.196
O  -1.098
buck
Ti Ti 31120.1 0.1540 5.25  15
O  O  11782.7 0.2340 30.22 15
Ti O  16957.5 0.1940 12.59 15
lennard 12 6
Ti Ti   1   0 15
O  O    1   0 15
Ti O    1   0 15
