opti conj conp
switch_minimiser bfgs gnorm 0.5
vectors
 3.824388550      0.004192482      0.617891195
-0.002401245      6.867857998      0.014955310
-0.681433844     -0.005990484      4.992613054
frac
Ti      0.872568524      0.115674798      0.369390405
Ti      0.369049155      0.356672572      0.851394629
Ti      0.872571416      0.597667454      0.369385585
Ti      0.715205685      0.900261575      0.233195676
O       0.557093394      0.431489251      0.369395225
O       0.190331455      0.594601987      0.851359926
O       0.087301875      0.353605177      0.369368233
O       0.684513682      0.190495332      0.851390773
O       0.190319887      0.112612222      0.851361854
O       0.963887370      0.916479632      0.516310849
O       0.233206280      0.715185441      0.233191820
O       0.466524963      0.916476740      0.914066781
species
Ti  2.196
O  -1.098
buck
Ti Ti 31120.1 0.1540 5.25  15
O  O  11782.7 0.2340 30.22 15
Ti O  16957.5 0.1940 12.59 15
lennard 12 6
Ti Ti   1   0 15
O  O    1   0 15
Ti O    1   0 15
