opti conj conp
switch_minimiser bfgs gnorm 0.5
vectors
 4.944442551      3.392051434      3.333983405
 4.168989837      4.013220247     -6.452121176
-1.298647469      0.921024655      8.075216442
frac
Ti      0.401592981      0.401592981      0.000000000
Ti      0.075456912      0.588766634      0.098942069
Ti      0.739807360      0.195615941      0.658385187
Ti      0.422210764      0.756128099      0.669029810
O       0.446030850      0.639467748      0.152900102
O       0.348080716      0.184145642      0.734740060
O       0.374719985      0.441281612      0.464520191
O       0.752538661      0.428521396      0.057860713
O       0.138082927      0.553816800      0.404968771
O       0.656071208      0.239956625      0.381020979
O       0.162789731      0.798888113      0.208001068
O       0.648105210      0.794971779      0.552112439
species
Ti  2.196
O  -1.098
buck
Ti Ti 31120.1 0.1540 5.25  15
O  O  11782.7 0.2340 30.22 15
Ti O  16957.5 0.1940 12.59 15
lennard 12 6
Ti Ti   1   0 15
O  O    1   0 15
Ti O    1   0 15
