opti conj conp
switch_minimiser bfgs gnorm 0.5
vectors
 6.427334596      4.734203481      5.062032577
 3.284374062      5.846831753      4.330111920
 0.803883346      2.271735447      7.570989830
frac
Ti      0.205427227      0.104306212      0.429230262
Ti      0.565906821      0.104304770      0.429230983
Ti      0.565907542      0.464783643      0.068749947
Ti      0.205428669      0.464785085      0.068749947
O       0.347251435      0.464784364      0.287407496
O       0.205427227      0.246128978      0.068752110
O       0.565907542      0.322960878      0.429229541
O       0.424083334      0.104304770      0.210574876
O       0.205427948      0.683441192      0.068749226
O       0.707729587      0.104304770      0.647887811
O       0.063604461      0.464784364      0.571052307
O       0.565907542      0.606607851      0.429229541
species
Ti  2.196
O  -1.098
buck
Ti Ti 31120.1 0.1540 5.25  15
O  O  11782.7 0.2340 30.22 15
Ti O  16957.5 0.1940 12.59 15
lennard 12 6
Ti Ti   1   0 15
O  O    1   0 15
Ti O    1   0 15
