opti conj conp
switch_minimiser bfgs gnorm 0.5
vectors
-5.211385344     11.001710767    -23.462370442
-7.956803898     58.819569942    -20.535994406
 8.648024985    -16.181950882     39.077358321
frac
Ti      0.042859530      0.190978423      0.201110160
Ti      0.232768136      0.032723995      0.011201048
Ti      0.232767630      0.159329057      0.011202061
Ti      0.042858770      0.064372348      0.201108894
O       0.180084774      0.059061245      0.063879852
O       0.095541120      0.164639654      0.148430849
O       0.095540867      0.038034845      0.148428570
O       0.180087812      0.185667573      0.063885676
O       0.243391609      0.217320991      0.000584918
O       0.032234791      0.132986742      0.211729835
O       0.032234537      0.006381427      0.211729835
O       0.243389330      0.090715422      0.000579347
species
Ti  2.196
O  -1.098
buck
Ti Ti 31120.1 0.1540 5.25  15
O  O  11782.7 0.2340 30.22 15
Ti O  16957.5 0.1940 12.59 15
lennard 12 6
Ti Ti   1   0 15
O  O    1   0 15
Ti O    1   0 15
