opti conj conp
switch_minimiser bfgs gnorm 0.5
vectors
 7.054280316      0.000035534     -1.281094195
 0.000018275      3.005178769      0.000021321
-2.434919612      0.000032489      6.764307914
frac
Ti      0.492766005      0.281687513      0.738888485
Ti      0.984962702      0.788781771      0.738701342
Ti      0.494626600      0.329396152      0.001094294
Ti      0.490335117      0.329419791      0.491436306
O       0.000006895      0.294624013      0.542581479
O       0.000000000      0.294628938      0.934814311
O       0.214376147      0.754898069      0.353503114
O       0.770585570      0.754914813      0.139124997
O       0.300446128      0.809296574      0.888829357
O       0.684517559      0.809304454      0.588378305
O       0.492208516      0.281703273      0.246130360
O      -0.000000000      0.263504117      0.246240675
species
Ti  2.196
O  -1.098
buck
Ti Ti 31120.1 0.1540 5.25  15
O  O  11782.7 0.2340 30.22 15
Ti O  16957.5 0.1940 12.59 15
lennard 12 6
Ti Ti   1   0 15
O  O    1   0 15
Ti O    1   0 15
