opti conj conp
switch_minimiser bfgs gnorm 0.5
vectors
 7.155657996     -0.967258709     -0.251184734
-0.688134676      3.263079804     -0.500691897
 0.292023490     -0.726207930      6.011821871
frac
Ti      0.000000000      1.175253918     -0.000000000
Ti      0.746735354      0.428511096      0.000000000
Ti      1.493470708      0.428512590      0.746735354
Ti      0.746735354      1.175243463      0.746735354
O       0.560051516      1.175241970      0.186686825
O       0.933419193      1.175241970      0.306783883
O       1.306785376      0.428508109      0.186683839
O       0.186685332      0.428508109      0.306786870
O       0.933420686      0.428509603      0.560053009
O       0.560050022      0.428509603      0.933417699
O       0.186683839      1.175246450      0.560050022
O       1.306786870      1.175246450      0.933420686
species
Ti  2.196
O  -1.098
buck
Ti Ti 31120.1 0.1540 5.25  15
O  O  11782.7 0.2340 30.22 15
Ti O  16957.5 0.1940 12.59 15
lennard 12 6
Ti Ti   1   0 15
O  O    1   0 15
Ti O    1   0 15
