opti conj conp
switch_minimiser bfgs gnorm 0.5
vectors
 6.133241361     -2.526964545      4.744854667
-4.660554699     14.620784943     -6.605414061
 4.999672658     -4.793513724      6.234133201
frac
Ti      0.293159859      0.312095927      0.049483198
Ti      0.193893696      0.113578293      0.148740228
Ti      0.367166681      0.063094552      0.322019168
Ti      0.069389634      0.261612186      0.222756579
O       0.217711779      0.352002500      0.342302396
O       0.045569567      0.023187978      0.029200368
O       0.322305435      0.221705215      0.298197910
O       0.338028251      0.153493601      0.073312000
O       0.089674053      0.153481690      0.264084162
O       0.173610469      0.221709980      0.107411058
O       0.251824732      0.023192346      0.177897319
O       0.011444305      0.352000515      0.193608224
species
Ti  2.196
O  -1.098
buck
Ti Ti 31120.1 0.1540 5.25  15
O  O  11782.7 0.2340 30.22 15
Ti O  16957.5 0.1940 12.59 15
lennard 12 6
Ti Ti   1   0 15
O  O    1   0 15
Ti O    1   0 15
