opti conj conp
switch_minimiser bfgs gnorm 0.5
vectors
 7.680298890      1.660114814     -3.750403320
 0.822014526      2.255575388     -0.072518540
-3.016178619      1.168387335     10.159112727
frac
Ti      0.546956837      0.582286407      0.092322236
Ti      0.361753084      0.211906310      0.277508951
Ti      0.685033507      0.117717332      0.600800486
Ti      0.129462250      0.488097430      0.415603400
O       0.406191169      0.656741257      0.638643491
O       0.085020460      0.043262483      0.054479971
O       0.601334582      0.413641839      0.556356474
O       0.630669096      0.286377456      0.136780322
O       0.167307477      0.286355233      0.492709467
O       0.323910078      0.413650729      0.200399920
O       0.469836695      0.043270631      0.331908178
O       0.021351971      0.656737553      0.361220470
species
Ti  2.196
O  -1.098
buck
Ti Ti 31120.1 0.1540 5.25  15
O  O  11782.7 0.2340 30.22 15
Ti O  16957.5 0.1940 12.59 15
lennard 12 6
Ti Ti   1   0 15
O  O    1   0 15
Ti O    1   0 15
