opti conj conv
switch_minimiser bfgs gnorm 0.5
vectors
 2.408115431      0.451943607      0.000000000
 0.000000000      2.740807860      0.000000000
 0.000000000      0.000000000      3.000000000
frac
C       0.844080747      0.615566426      0.500000000
C       1.344080747      0.615566426      0.500000000
C       0.484076725      0.172366257      0.500000000
C       0.984076725      0.172366257      0.500000000
lib /home/carlos/gulp-6.0/Libraries/edip_marks.lib
