opti conj conv
switch_minimiser bfgs gnorm 0.5
vectors
 1.963720208      0.000000000      0.000000000
 0.000000000      1.086810853     -0.644918592
 0.000000000      0.000000000      3.000000000
frac
C       0.028595921      0.918525817      0.500000000
C       0.528595921     -0.918525817      0.500000000
C       0.667877096      0.629363139      0.500000000
C       0.167877096      0.370636861      0.500000000
lib /home/carlos/gulp-6.0/Libraries/edip_marks.lib
