opti conj conv
switch_minimiser bfgs gnorm 0.5
vectors
 6.453958811      0.000000000      0.000000000
 0.000000000      2.436670310     -0.492642870
 0.000000000      0.000000000      3.000000000
frac
C       0.500000000      0.205921350      0.500000000
C       0.500000000      0.530749226      0.500000000
C       0.782930793      0.329281733      0.500000000
C      -0.782930793      0.329281733      0.500000000
lib /home/carlos/gulp-6.0/Libraries/edip_marks.lib
