opti conj conv
switch_minimiser bfgs gnorm 0.5
vectors
 3.873031830      0.000000000      0.000000000
 0.000000000      2.428131246      0.771339655
 0.000000000      0.000000000      3.000000000
frac
C       0.684040534      0.955034980      0.500000000
C       0.684040534     -0.955034980      0.500000000
C       0.960444868      0.541714712      0.500000000
C       0.960444868      0.458285288      0.500000000
lib /home/carlos/gulp-6.0/Libraries/edip_marks.lib
