opti conj conv
switch_minimiser bfgs gnorm 0.5
vectors
 4.171488520      2.741831387      0.000000000
 0.000000000      5.088305535      0.000000000
 0.000000000      0.000000000      3.000000000
frac
C      -0.000000000     -0.000000000      0.500000000
C       0.500000000      0.500000000      0.500000000
C       0.190891195      0.004344604      0.500000000
C      -0.190891195     -0.004344604      0.500000000
lib /home/carlos/gulp-6.0/Libraries/edip_marks.lib
