opti conj conv
switch_minimiser bfgs gnorm 0.5
vectors
 3.110175837      0.000000000      0.000000000
 0.000000000      3.257530056     -2.130402654
 0.000000000      0.000000000      3.000000000
frac
C       0.087728895      0.686411298      0.500000000
C       0.087728895     -0.686411298      0.500000000
C       0.587728895      1.186411298      0.500000000
C       0.587728895     -0.186411298      0.500000000
lib /home/carlos/gulp-6.0/Libraries/edip_marks.lib
