opti conj conp
switch_minimiser bfgs gnorm 0.5
vectors
 1.431694148      0.928085506      0.000000000
 0.000000000      1.613553476      0.000000000
 0.000000000      0.000000000      3.000000000
frac
C       0.250000000     -0.000000000      0.500000000
C       0.750000000     -0.000000000      0.500000000
C       0.250000000      0.500000000      0.500000000
C       0.750000000      0.500000000      0.500000000
lib /home/carlos/gulp-6.0/Libraries/edip_marks.lib
