opti conj conv
switch_minimiser bfgs gnorm 0.5
vectors
 2.834758768      0.621360701      0.000000000
 0.000000000      2.142024341      0.000000000
 0.000000000      0.000000000      3.000000000
frac
C      -0.000000000     -0.000000000     -0.000000000
C      -0.000000000      0.500000000      0.500000000
C      -0.000000000      0.500000000      0.500000000
C       0.500000000      0.500000000      1.000000000
lib /home/carlos/gulp-6.0/Libraries/edip_marks.lib
