opti conj conv
switch_minimiser bfgs gnorm 0.5
vectors
 3.077426968     -0.455465227      0.000000000
 0.000000000      3.607888444      0.000000000
 0.000000000      0.000000000      3.000000000
frac
C       0.090417273      0.087335911      1.000000000
C       0.765558414      0.772375584      0.500000000
C       0.765558414      0.772375584      0.500000000
C       0.783119557      0.524144035     -0.000000000
lib /home/carlos/gulp-6.0/Libraries/edip_marks.lib
