opti conj conv
switch_minimiser bfgs gnorm 0.5
vectors
 2.167722093     -0.322100317      0.116271055
 0.000000000      2.187670570     -0.189828331
 0.000000000      0.000000000      3.048615616
frac
C       0.438682211      0.607718247      0.500000000
C      -0.438682211     -0.607718247      0.500000000
C       0.614188744      0.084015894      0.500000000
C       0.385811256      0.915984106      0.500000000
lib /home/carlos/gulp-6.0/Libraries/edip_marks.lib
