opti conj conp
switch_minimiser bfgs gnorm 0.5
vectors
 5.535836145      0.000000000      0.000000000
 0.000000000      3.987897976      0.000000000
 0.000000000      0.000000000      9.033774955
frac
Ti     -0.000000000     -0.000000000      0.971592000
Ti      0.500000000     -0.000000000      0.971592000
Ti      0.250000000      0.269413671      0.347352344
Ti      0.750000000      0.730586329      0.347352344
O       0.666295791      0.541673072      0.752335355
O       0.333704209      0.458326928      0.752335355
O       0.166295791      0.458326928      0.752335355
O       0.833704209      0.541673072      0.752335355
O      -0.000000000     -0.000000000      0.246808378
O       0.500000000     -0.000000000      0.246808378
O      -0.000000000     -0.000000000      0.440135649
O       0.500000000     -0.000000000      0.440135649
species
Ti  2.196
O  -1.098
buck
Ti Ti 31120.1 0.1540 5.25  15
O  O  11782.7 0.2340 30.22 15
Ti O  16957.5 0.1940 12.59 15
lennard 12 6
Ti Ti   1   0 15
O  O    1   0 15
Ti O    1   0 15
