opti conj conp
switch_minimiser bfgs gnorm 0.5
vectors
 6.276967807      0.000000000      0.000000000
 0.000000000      3.727255225      0.000000000
 0.000000000      0.000000000      6.464092857
frac
Ti      0.250000000      0.632840297      1.000000000
Ti      0.250000000      0.367159703      0.500000000
Ti      0.750000000      0.132840297      0.500000000
Ti      0.750000000      0.867159703      1.000000000
O      -0.000000000      0.250000000      0.849815770
O      -0.000000000      0.750000000      0.650184230
O       0.500000000      0.750000000      0.349815770
O       0.500000000      0.250000000      0.150184230
O       0.225524876      0.000000000      0.250000000
O       0.274475124      0.000000000      0.750000000
O       0.725524876      0.500000000      0.750000000
O       0.774475124      0.500000000      0.250000000
species
Ti  2.196
O  -1.098
buck
Ti Ti 31120.1 0.1540 5.25  15
O  O  11782.7 0.2340 30.22 15
Ti O  16957.5 0.1940 12.59 15
lennard 12 6
Ti Ti   1   0 15
O  O    1   0 15
Ti O    1   0 15
