opti conj conp
switch_minimiser bfgs gnorm 0.5
vectors
 4.816213738      0.000000000      0.000000000
 0.000000000      5.300008962      0.000000000
 0.000000000      0.000000000      6.616483287
frac
Ti      0.500000000      0.500000000      0.839094312
Ti      0.500000000      0.500000000      0.339094312
Ti     -0.000000000     -0.000000000      0.529179060
Ti     -0.000000000     -0.000000000      0.029179060
O       0.399315657      0.756904456      0.597299254
O       0.600684343      0.243095544      0.597299254
O       0.399315657      0.243095544      0.097299254
O       0.600684343      0.756904456      0.097299254
O       0.500000000     -0.000000000      0.928582934
O       0.500000000     -0.000000000      0.428582934
O       0.500000000     -0.000000000      0.063724795
O       0.500000000     -0.000000000      0.563724795
species
Ti  2.196
O  -1.098
buck
Ti Ti 31120.1 0.1540 5.25  15
O  O  11782.7 0.2340 30.22 15
Ti O  16957.5 0.1940 12.59 15
lennard 12 6
Ti Ti   1   0 15
O  O    1   0 15
Ti O    1   0 15
