opti conj conp
switch_minimiser bfgs gnorm 0.5
vectors
 4.389098663      0.000000000      2.307164829
 0.000000000      5.306476654      0.000000000
 0.000000000      0.000000000      6.259410880
frac
Ti      0.305030322      0.294542893      0.370101134
Ti      0.694969678      0.794542893      0.129898866
Ti      0.694969678      0.705457107      0.629898866
Ti      0.305030322      0.205457107      0.870101134
O      -0.000000000     -0.000000000     -0.000000000
O      -0.000000000      0.500000000      0.500000000
O       0.500000000      1.000000000      1.000000000
O       0.500000000      0.500000000      0.500000000
O       0.757623553      0.340259329      0.561013915
O       0.242376447      0.840259329      0.938986085
O       0.242376447      0.659740671      0.438986085
O       0.757623553      0.159740671      0.061013915
species
Ti  2.196
O  -1.098
buck
Ti Ti 31120.1 0.1540 5.25  15
O  O  11782.7 0.2340 30.22 15
Ti O  16957.5 0.1940 12.59 15
lennard 12 6
Ti Ti   1   0 15
O  O    1   0 15
Ti O    1   0 15
