opti conj conp
switch_minimiser bfgs gnorm 0.5
vectors
 3.309039323      0.000000000      0.809398151
 0.000000000      7.032533376      0.000000000
 0.000000000      0.000000000      7.660038105
frac
Ti     -0.000000000     -0.000000000     -0.000000000
Ti      0.500000000      0.500000000     -0.000000000
Ti     -0.000000000     -0.000000000      0.500000000
Ti      0.500000000      0.500000000      0.500000000
O       0.362011486      0.923041069      0.473438194
O       0.637988514      0.923041069      0.526561806
O       0.637988514      0.076958931      0.526561806
O       0.362011486      0.076958931      0.473438194
O       0.862011486      0.423041069      0.473438194
O       0.137988514      0.423041069      0.526561806
O       0.137988514      0.576958931      0.526561806
O       0.862011486      0.576958931      0.473438194
species
Ti  2.196
O  -1.098
buck
Ti Ti 31120.1 0.1540 5.25  15
O  O  11782.7 0.2340 30.22 15
Ti O  16957.5 0.1940 12.59 15
lennard 12 6
Ti Ti   1   0 15
O  O    1   0 15
Ti O    1   0 15
