opti conj conp
switch_minimiser bfgs gnorm 0.5
vectors
 6.440223134      0.000000000     -0.907615126
 0.000000000      3.344746910      0.000000000
 0.000000000      0.000000000      5.467351583
frac
Ti      0.677653185      0.929384552      0.599206556
Ti      0.322346815      0.429384552      0.400793444
Ti      0.689039018      0.500443071      0.199607306
Ti      0.310960982      0.000443071      0.800392694
O       0.239673755      0.116492235      0.420625757
O       0.760326245      0.616492235      0.579374243
O       0.785462735      0.476364226      0.999248199
O       0.214537265      0.976364226      0.000751801
O       0.868107921      0.559610145      0.219644455
O       0.131892079      0.059610145      0.780355545
O       0.554332376      0.088553251      0.126178976
O       0.445667624      0.588553251      0.873821024
species
Ti  2.196
O  -1.098
buck
Ti Ti 31120.1 0.1540 5.25  15
O  O  11782.7 0.2340 30.22 15
Ti O  16957.5 0.1940 12.59 15
lennard 12 6
Ti Ti   1   0 15
O  O    1   0 15
Ti O    1   0 15
