opti conj conp
switch_minimiser bfgs gnorm 0.5
vectors
 4.255858156      0.000000000     -0.192757073
 0.000000000      2.961830385      0.000000000
 0.000000000      0.000000000      7.162987796
frac
Ti      0.789601356     -0.000000000      0.508561442
Ti      0.289601356      0.500000000      0.508561442
Ti      0.930729507     -0.000000000      0.123746749
Ti      0.430729507      0.500000000      0.123746749
O       0.556603331      1.000000000      0.361172345
O       0.056603331      0.500000000      0.361172345
O       0.596241228     -0.000000000      0.821770722
O       0.096241228      0.500000000      0.821770722
O       0.691202053      0.253472336      0.641516230
O       0.691202053      0.746527664      0.641516230
O       0.191202053      0.753472336      0.641516230
O       0.191202053      0.246527664      0.641516230
species
Ti  2.196
O  -1.098
buck
Ti Ti 31120.1 0.1540 5.25  15
O  O  11782.7 0.2340 30.22 15
Ti O  16957.5 0.1940 12.59 15
lennard 12 6
Ti Ti   1   0 15
O  O    1   0 15
Ti O    1   0 15
