opti conj conp
switch_minimiser bfgs gnorm 0.5
vectors
 6.662271293      0.000000000      0.000000000
 0.000000000      5.203488352      0.000000000
 0.000000000      0.000000000      4.591277326
frac
Ti     -0.000000000     -0.000000000     -0.000000000
Ti      0.500000000      0.500000000      0.000000000
Ti     -0.000000000     -0.000000000      0.500000000
Ti      0.500000000      0.500000000      0.500000000
O      -0.000000000      0.500000000      0.359745388
O      -0.000000000      0.500000000      0.640254612
O       0.500000000      1.000000000      0.359745388
O       0.500000000      1.000000000      0.640254612
O       0.250000000      0.250000000      0.800318465
O       0.750000000      0.250000000      0.199681535
O       0.750000000      0.750000000      0.800318465
O       0.250000000      0.750000000      0.199681535
species
Ti  2.196
O  -1.098
buck
Ti Ti 31120.1 0.1540 5.25  15
O  O  11782.7 0.2340 30.22 15
Ti O  16957.5 0.1940 12.59 15
lennard 12 6
Ti Ti   1   0 15
O  O    1   0 15
Ti O    1   0 15
