opti conj conp
switch_minimiser bfgs gnorm 0.5
vectors
 3.590106943      0.000000000      0.000000000
 0.000000000      4.685088338      0.000000000
 0.000000000      0.000000000      8.405225684
frac
Ti      0.595929067      0.589830820      0.640994398
Ti      0.904070933      0.410169180      0.140994398
Ti      0.404070933      0.089830820      0.859005602
Ti      0.095929067      0.910169180      0.359005602
O       0.904188310      0.920370949      0.226160192
O       0.595811690      0.079629051      0.726160192
O       0.095811690      0.420370949      0.273839808
O       0.404188310      0.579629051      0.773839808
O       0.367014614      0.995705081      0.298834160
O       0.132985386      0.004294919      0.798834160
O       0.632985386      0.495705081      0.201165840
O       0.867014614      0.504294919      0.701165840
species
Ti  2.196
O  -1.098
buck
Ti Ti 31120.1 0.1540 5.25  15
O  O  11782.7 0.2340 30.22 15
Ti O  16957.5 0.1940 12.59 15
lennard 12 6
Ti Ti   1   0 15
O  O    1   0 15
Ti O    1   0 15
