opti conj conp
switch_minimiser bfgs gnorm 0.5
vectors
 7.645625636      0.000000000      0.000000000
 0.000000000      2.658659517      0.000000000
 0.000000000      0.000000000      4.130200160
frac
Ti     -0.000000000      0.969649723      0.696270642
Ti      0.500000000      0.030350277      0.196270642
Ti     -0.000000000      0.264499068      0.086526103
Ti      0.500000000      0.735500932      0.586526103
O       0.248429731      0.001703812      0.816889555
O       0.251570269      0.998296188      0.316889555
O       0.748429731      0.998296188      0.316889555
O       0.751570269      0.001703812      0.816889555
O      -0.000000000      0.602131444      0.269871660
O       0.500000000      0.397868556      0.769871660
O      -0.000000000      0.479062569      0.768478940
O       0.500000000      0.520937431      0.268478940
species
Ti  2.196
O  -1.098
buck
Ti Ti 31120.1 0.1540 5.25  15
O  O  11782.7 0.2340 30.22 15
Ti O  16957.5 0.1940 12.59 15
lennard 12 6
Ti Ti   1   0 15
O  O    1   0 15
Ti O    1   0 15
