opti conj conp
switch_minimiser bfgs gnorm 0.5
vectors
 5.409542580      0.000000000     -2.771578552
 0.000000000      4.829971222      0.000000000
 0.000000000      0.000000000      8.274623673
frac
Ti      0.643573333      0.579809300      0.461627248
Ti      0.643573333      0.420190700      0.961627248
Ti      0.143573333      0.079809300      0.461627248
Ti      0.143573333      0.920190700      0.961627248
O       0.931023110      0.734070615      0.086602352
O       0.931023110      0.265929385      0.586602352
O       0.431023110      0.234070615      0.086602352
O       0.431023110      0.765929385      0.586602352
O       0.144205924      0.739129314      0.378850739
O       0.144205924      0.260870686      0.878850739
O       0.644205924      0.239129314      0.378850739
O       0.644205924      0.760870686      0.878850739
species
Ti  2.196
O  -1.098
buck
Ti Ti 31120.1 0.1540 5.25  15
O  O  11782.7 0.2340 30.22 15
Ti O  16957.5 0.1940 12.59 15
lennard 12 6
Ti Ti   1   0 15
O  O    1   0 15
Ti O    1   0 15
