opti conj conp
switch_minimiser bfgs gnorm 0.5
vectors
 4.338740308      0.000000000      0.000000000
 0.000000000      3.990234742      0.000000000
 0.000000000      0.000000000      6.965798828
frac
Ti      0.500000000      0.742326836      1.000000000
Ti      0.500000000      0.257673164      1.000000000
Ti     -0.000000000     -0.000000000     -0.000000000
Ti     -0.000000000      0.500000000     -0.000000000
O       0.354971705      0.133431650      0.426367051
O       0.645028295      0.866568350      0.426367051
O       0.645028295      0.133431650      0.573632949
O       0.354971705      0.866568350      0.573632949
O       0.212338818      0.888386850      0.297698043
O       0.787661182      0.111613150      0.297698043
O       0.787661182      0.888386850      0.702301957
O       0.212338818      0.111613150      0.702301957
species
Ti  2.196
O  -1.098
buck
Ti Ti 31120.1 0.1540 5.25  15
O  O  11782.7 0.2340 30.22 15
Ti O  16957.5 0.1940 12.59 15
lennard 12 6
Ti Ti   1   0 15
O  O    1   0 15
Ti O    1   0 15
