opti conj conp
switch_minimiser bfgs gnorm 0.5
vectors
 4.011142311      0.000000000     -2.788398856
 0.000000000      4.760090012      0.000000000
 0.000000000      0.000000000      5.445473148
frac
Ti     -0.000000000      0.263329514      0.250000000
Ti     -0.000000000      0.736670486      0.750000000
Ti     -0.000000000      0.500000000     -0.000000000
Ti     -0.000000000      0.500000000      0.500000000
O       0.028728003      0.868158969      0.450034391
O       0.971271997      0.868158969      0.049965609
O       0.971271997      0.131841031      0.549965609
O       0.028728003      0.131841031      0.950034391
O       0.500000000      0.016966645      0.250000000
O       0.500000000      0.983033355      0.750000000
O       0.500000000      0.500000000      1.000000000
O       0.500000000      0.500000000      0.500000000
species
Ti  2.196
O  -1.098
buck
Ti Ti 31120.1 0.1540 5.25  15
O  O  11782.7 0.2340 30.22 15
Ti O  16957.5 0.1940 12.59 15
lennard 12 6
Ti Ti   1   0 15
O  O    1   0 15
Ti O    1   0 15
