opti conj conp
switch_minimiser bfgs gnorm 0.5
vectors
 3.212232651      0.000000000      3.741797167
 0.000000000      6.363490289      0.000000000
 0.000000000      0.000000000      8.297735104
frac
Ti      0.083424499      0.347694202      0.337856769
Ti      0.083424499      0.652305798      0.837856769
Ti      0.805159162      0.742139150      0.780000747
Ti      0.805159162      0.257860850      0.280000747
O       0.031918453      0.069702031      0.494228240
O       0.031918453      0.930297969      0.994228240
O       0.272065557      0.596432613      0.148902042
O       0.272065557      0.403567387      0.648902042
O       0.067437909      0.265451335      0.986614067
O       0.067437909      0.734548665      0.486614067
O       0.272026234      0.407928441      0.889801182
O       0.272026234      0.592071559      0.389801182
species
Ti  2.196
O  -1.098
buck
Ti Ti 31120.1 0.1540 5.25  15
O  O  11782.7 0.2340 30.22 15
Ti O  16957.5 0.1940 12.59 15
lennard 12 6
Ti Ti   1   0 15
O  O    1   0 15
Ti O    1   0 15
