opti conj conp
switch_minimiser bfgs gnorm 0.5
vectors
 5.323661233      0.000000000     -1.914171620
 0.000000000      4.644318685      0.000000000
 0.000000000      0.000000000      4.301238048
frac
Ti      0.500000000      0.724069388      0.500000000
Ti      0.173059973      0.623646493      0.703328218
Ti      0.826940027      0.623646493      0.296671782
Ti      0.500000000      0.134066993      0.500000000
O       0.500000000      0.232965495      0.000000000
O       0.171342375      0.672003650      0.363778945
O       0.828657625      0.672003650      0.636221055
O       0.089011854      0.946834984      0.953645604
O       0.910988146      0.946834984      0.046354396
O       0.234394349      0.184268676      0.366431991
O       0.765605651      0.184268676      0.633568009
O      -0.000000000      0.414525830      0.500000000
species
Ti  2.196
O  -1.098
buck
Ti Ti 31120.1 0.1540 5.25  15
O  O  11782.7 0.2340 30.22 15
Ti O  16957.5 0.1940 12.59 15
lennard 12 6
Ti Ti   1   0 15
O  O    1   0 15
Ti O    1   0 15
