opti conj conp
switch_minimiser bfgs gnorm 0.5
vectors
 5.636605914      0.000000000      0.186745772
 0.000000000      4.798441206      0.000000000
 0.000000000      0.000000000      4.254604839
frac
Ti      0.147964064      0.719490412      0.580478795
Ti      0.852035936      0.719490412      0.419521205
Ti      0.647964064      0.219490412      0.580478795
Ti      0.352035936      0.219490412      0.419521205
O       0.315599942      0.393976521      0.891371453
O       0.684400058      0.393976521      0.108628547
O       0.815599942      0.893976521      0.891371453
O       0.184400058      0.893976521      0.108628547
O       0.563943368      0.795669293      0.057988860
O       0.436056632      0.795669293      0.942011140
O       0.063943368      0.295669293      0.057988860
O       0.936056632      0.295669293      0.942011140
species
Ti  2.196
O  -1.098
buck
Ti Ti 31120.1 0.1540 5.25  15
O  O  11782.7 0.2340 30.22 15
Ti O  16957.5 0.1940 12.59 15
lennard 12 6
Ti Ti   1   0 15
O  O    1   0 15
Ti O    1   0 15
