opti conj conp
switch_minimiser bfgs gnorm 0.5
vectors
 5.798038618      0.000000000      0.652076445
 0.000000000      3.957854011      0.000000000
 0.000000000      0.000000000      5.080002783
frac
Ti      0.257897735      0.500000000      0.990416526
Ti      0.847718934     -0.000000000      0.946837082
Ti      0.667339511      0.500000000      0.694394884
Ti      0.334244391      0.000000000      0.877194924
O       0.498463989      0.500000000      0.138370226
O       0.044165339     -0.000000000      0.209310284
O       0.723754906     -0.000000000      0.215776844
O       0.078492404      0.096995150      0.894010122
O       0.078492404      0.903004850      0.894010122
O       0.155233049      0.763968437      0.845687817
O       0.155233049      0.236031563      0.845687817
O       0.080003536      0.500000000      0.350666969
species
Ti  2.196
O  -1.098
buck
Ti Ti 31120.1 0.1540 5.25  15
O  O  11782.7 0.2340 30.22 15
Ti O  16957.5 0.1940 12.59 15
lennard 12 6
Ti Ti   1   0 15
O  O    1   0 15
Ti O    1   0 15
