opti conj conp
switch_minimiser bfgs gnorm 0.5
vectors
 5.484758544      0.789600111      1.266239877
 0.000000000      6.879349011     -2.061705053
 0.000000000      0.000000000      3.652715398
frac
Ti      0.280171829      0.813721220      0.209350307
Ti      0.719828171      0.186278780      0.790649693
Ti      0.996863593      0.251279032      0.150723309
Ti      0.003136407      0.748720968      0.849276691
O       0.500000000     -0.000000000      0.500000000
O       0.134512158      0.300915290      0.755911705
O       0.865487842      0.699084710      0.244088295
O       0.143706533      0.495115697      0.599967198
O       0.856293467      0.504884303      0.400032802
O       0.634487222      0.727699101      0.121919631
O       0.365512778      0.272300899      0.878080369
O       0.500000000      0.500000000      0.500000000
species
Ti  2.196
O  -1.098
buck
Ti Ti 31120.1 0.1540 5.25  15
O  O  11782.7 0.2340 30.22 15
Ti O  16957.5 0.1940 12.59 15
lennard 12 6
Ti Ti   1   0 15
O  O    1   0 15
Ti O    1   0 15
