opti conj conp
switch_minimiser bfgs gnorm 0.5
vectors
 5.857216276      0.000000000      0.000000000
 0.000000000      6.416785726      0.000000000
 0.000000000      0.000000000      4.559431324
frac
Ti     -0.000000000      0.014743517      0.077231556
Ti     -0.000000000      0.985256483      0.577231556
Ti      0.500000000      0.158651936      0.919666562
Ti      0.500000000      0.841348064      0.419666562
O       0.357853332      0.266730976      0.203780051
O       0.642146668      0.733269024      0.703780051
O       0.357853332      0.733269024      0.703780051
O       0.642146668      0.266730976      0.203780051
O      -0.000000000      0.290545206      0.228971000
O      -0.000000000      0.709454794      0.728971000
O      -0.000000000      0.307590966      0.400235494
O      -0.000000000      0.692409034      0.900235494
species
Ti  2.196
O  -1.098
buck
Ti Ti 31120.1 0.1540 5.25  15
O  O  11782.7 0.2340 30.22 15
Ti O  16957.5 0.1940 12.59 15
lennard 12 6
Ti Ti   1   0 15
O  O    1   0 15
Ti O    1   0 15
