opti conj conp
switch_minimiser bfgs gnorm 0.5
vectors
 4.044378945      0.000000000      0.000000000
 0.000000000      4.434430024      0.000000000
 0.000000000      0.000000000      7.952382084
frac
Ti      0.929051608      0.044996065      0.897338999
Ti      0.070948392      0.955003935      0.397338999
Ti      0.070948392      0.044996065      0.602661001
Ti      0.929051608      0.955003935      0.102661001
O       0.589530702      0.442421595      0.650764894
O       0.410469298      0.557578405      0.150764894
O       0.410469298      0.442421595      0.849235106
O       0.589530702      0.557578405      0.349235106
O       0.363699096      0.923786008      0.433956844
O       0.636300904      0.076213992      0.933956844
O       0.636300904      0.923786008      0.066043156
O       0.363699096      0.076213992      0.566043156
species
Ti  2.196
O  -1.098
buck
Ti Ti 31120.1 0.1540 5.25  15
O  O  11782.7 0.2340 30.22 15
Ti O  16957.5 0.1940 12.59 15
lennard 12 6
Ti Ti   1   0 15
O  O    1   0 15
Ti O    1   0 15
