opti conj conp
switch_minimiser bfgs gnorm 0.5
vectors
 5.381369709      0.000000000      0.857150298
 0.000000000      6.087086248      0.000000000
 0.000000000      0.000000000      5.402866987
frac
Ti      0.500000000      0.500000000     -0.000000000
Ti     -0.000000000     -0.000000000      0.500000000
Ti      0.593377088     -0.000000000      0.688237361
Ti      0.406622912     -0.000000000      0.311762639
O       0.500000000     -0.000000000     -0.000000000
O       0.094603524      0.128516956      0.171364694
O       0.905396476      0.128516956      0.828635306
O       0.905396476      0.871483044      0.828635306
O       0.094603524      0.871483044      0.171364694
O       0.500000000      0.842126192      0.500000000
O       0.500000000      0.157873808      0.500000000
O      -0.000000000      0.500000000     -0.000000000
species
Ti  2.196
O  -1.098
buck
Ti Ti 31120.1 0.1540 5.25  15
O  O  11782.7 0.2340 30.22 15
Ti O  16957.5 0.1940 12.59 15
lennard 12 6
Ti Ti   1   0 15
O  O    1   0 15
Ti O    1   0 15
