opti conj conp
switch_minimiser bfgs gnorm 0.5
vectors
 5.085074353      0.000000000      0.000000000
 0.000000000      5.508926838      0.000000000
 0.000000000      0.000000000      5.881674645
frac
Ti      0.500000000      1.000000000      0.734818121
Ti      0.500000000      0.500000000      0.234818121
Ti     -0.000000000     -0.000000000      0.933541261
Ti     -0.000000000      0.500000000      0.433541261
O       0.500000000      1.000000000      0.218665633
O       0.500000000      0.500000000      0.718665633
O       0.424308833      0.350548488      0.672239602
O       0.575691167      0.649451512      0.672239602
O       0.424308833      0.149451512      0.172239602
O       0.575691167      0.850548488      0.172239602
O      -0.000000000     -0.000000000      0.649730685
O      -0.000000000      0.500000000      0.149730685
species
Ti  2.196
O  -1.098
buck
Ti Ti 31120.1 0.1540 5.25  15
O  O  11782.7 0.2340 30.22 15
Ti O  16957.5 0.1940 12.59 15
lennard 12 6
Ti Ti   1   0 15
O  O    1   0 15
Ti O    1   0 15
