opti conj conp
switch_minimiser bfgs gnorm 0.5
vectors
 6.577966575      0.000000000      0.000000000
 0.000000000     10.202344686      0.000000000
 0.000000000      0.000000000      3.420103006
frac
Ti      0.876695629      0.965399630      0.758044935
Ti      0.123304371      0.034600370      0.258044935
Ti      0.376695629      0.034600370      0.758044935
Ti      0.623304371      0.965399630      0.258044935
O       0.133139313      0.419151475      0.477172130
O       0.866860687      0.580848525      0.977172130
O       0.633139313      0.580848525      0.477172130
O       0.366860687      0.419151475      0.977172130
O       0.718774503      0.585369424      0.820545341
O       0.281225497      0.414630576      0.320545341
O       0.218774503      0.414630576      0.820545341
O       0.781225497      0.585369424      0.320545341
species
Ti  2.196
O  -1.098
buck
Ti Ti 31120.1 0.1540 5.25  15
O  O  11782.7 0.2340 30.22 15
Ti O  16957.5 0.1940 12.59 15
lennard 12 6
Ti Ti   1   0 15
O  O    1   0 15
Ti O    1   0 15
