opti conj conp
switch_minimiser bfgs gnorm 0.5
vectors
 6.714091026      0.000000000     -2.328027767
 0.000000000      6.625790795      0.000000000
 0.000000000      0.000000000      3.078726435
frac
Ti      0.906034786      0.402206153      0.903362799
Ti      0.093965214      0.902206153      0.096637201
Ti      0.093965214      0.597793847      0.096637201
Ti      0.906034786      0.097793847      0.903362799
O       0.763972121      0.250000000      0.815832407
O       0.236027879      0.750000000      0.184167593
O       0.796178601      0.509765738      0.001921806
O       0.203821399      0.009765738      0.998078194
O       0.203821399      0.490234262      0.998078194
O       0.796178601      0.990234262      0.001921806
O      -0.000000000     -0.000000000      0.500000000
O      -0.000000000      0.500000000      0.500000000
species
Ti  2.196
O  -1.098
buck
Ti Ti 31120.1 0.1540 5.25  15
O  O  11782.7 0.2340 30.22 15
Ti O  16957.5 0.1940 12.59 15
lennard 12 6
Ti Ti   1   0 15
O  O    1   0 15
Ti O    1   0 15
