opti conj conp
switch_minimiser bfgs gnorm 0.5
vectors
 5.949365620      0.000000000      0.000000000
 0.000000000      4.969793242      0.000000000
 0.000000000      0.000000000      6.716522080
frac
Ti     -0.000000000      0.835572987      0.250000000
Ti     -0.000000000      0.164427013      0.750000000
Ti      0.500000000      0.335572987      0.250000000
Ti      0.500000000      0.664427013      0.750000000
O       0.312984988      0.424033962      0.827768239
O       0.687015012      0.575966038      0.327768239
O       0.687015012      0.424033962      0.672231761
O       0.312984988      0.575966038      0.172231761
O       0.812984988      0.924033962      0.827768239
O       0.187015012      0.075966038      0.327768239
O       0.187015012      0.924033962      0.672231761
O       0.812984988      0.075966038      0.172231761
species
Ti  2.196
O  -1.098
buck
Ti Ti 31120.1 0.1540 5.25  15
O  O  11782.7 0.2340 30.22 15
Ti O  16957.5 0.1940 12.59 15
lennard 12 6
Ti Ti   1   0 15
O  O    1   0 15
Ti O    1   0 15
