opti conj conp
switch_minimiser bfgs gnorm 0.5
vectors
 6.875889306      0.000000000      0.000000000
 0.000000000      4.214341577      0.000000000
 0.000000000      0.000000000      7.665205827
frac
Ti     -0.000000000      0.500000000      0.959232402
Ti      0.500000000     -0.000000000      0.040767598
Ti     -0.000000000     -0.000000000      0.686852467
Ti      0.500000000      0.500000000      0.313147533
O       0.148539773      0.838400600      0.231399411
O       0.851460227      0.161599400      0.231399411
O       0.351460227      0.338400600      0.768600589
O       0.648539773      0.661599400      0.768600589
O       0.572858920      0.369059573      0.974180993
O       0.427141080      0.630940427      0.974180993
O       0.927141080      0.869059573      0.025819007
O       0.072858920      0.130940427      0.025819007
species
Ti  2.196
O  -1.098
buck
Ti Ti 31120.1 0.1540 5.25  15
O  O  11782.7 0.2340 30.22 15
Ti O  16957.5 0.1940 12.59 15
lennard 12 6
Ti Ti   1   0 15
O  O    1   0 15
Ti O    1   0 15
