opti conj conp
switch_minimiser bfgs gnorm 0.5
vectors
 6.036226851      0.000000000      0.000000000
 0.000000000      5.172282661      0.000000000
 0.000000000      0.000000000      6.291844144
frac
Ti      0.725107477      0.000000000      0.889267401
Ti      0.274892523     -0.000000000      0.889267401
Ti      0.500000000      0.500000000      0.580580089
Ti     -0.000000000      0.500000000      0.401807674
O       0.828067129      0.360894617      0.974899645
O       0.171932871      0.639105383      0.974899645
O       0.828067129      0.639105383      0.974899645
O       0.171932871      0.360894617      0.974899645
O       0.899139540      1.000000000      0.253655784
O       0.100860460     -0.000000000      0.253655784
O       0.500000000      1.000000000      0.549146839
O      -0.000000000      0.500000000      0.209931491
species
Ti  2.196
O  -1.098
buck
Ti Ti 31120.1 0.1540 5.25  15
O  O  11782.7 0.2340 30.22 15
Ti O  16957.5 0.1940 12.59 15
lennard 12 6
Ti Ti   1   0 15
O  O    1   0 15
Ti O    1   0 15
