opti conj conp
switch_minimiser bfgs gnorm 0.5
vectors
 5.000883179      0.000000000      0.000000000
 0.000000000      3.218369834      0.000000000
 0.000000000      0.000000000      8.945707975
frac
Ti     -0.000000000     -0.000000000      0.500000000
Ti      0.500000000      0.500000000      1.000000000
Ti     -0.000000000     -0.000000000     -0.000000000
Ti      0.500000000      0.500000000      0.500000000
O       0.241365674      0.474270667      0.566553375
O       0.758634326      0.525729333      0.566553375
O       0.758634326      0.474270667      0.433446625
O       0.241365674      0.525729333      0.433446625
O       0.741365674      0.974270667      0.066553375
O       0.258634326      0.025729333      0.066553375
O       0.258634326      0.974270667      0.933446625
O       0.741365674      0.025729333      0.933446625
species
Ti  2.196
O  -1.098
buck
Ti Ti 31120.1 0.1540 5.25  15
O  O  11782.7 0.2340 30.22 15
Ti O  16957.5 0.1940 12.59 15
lennard 12 6
Ti Ti   1   0 15
O  O    1   0 15
Ti O    1   0 15
