opti conjugate nosymmetry conp 
pressure 100 GPa
vectors
 6.217751748     -0.321901726      0.080119056
-0.330311080      5.348266955      0.210342443
 0.542305751      0.184653907      6.295786141
frac
Al      0.415007323      0.638847291      0.938874422
Al      0.283733779      0.010780866      0.704628630
Al      0.562932371      0.403199550      0.382660145
Al      0.066139490      0.899992431      0.382660145
Al      0.197413035      0.534474088      0.616905937
Al      0.748464006      0.967510917      0.926902073
Al      0.959917935      0.918540056      0.601969722
Al      0.873202737      0.705778569      0.093846982
Mg      0.398578382      0.182236012      0.096361388
Mg      0.579361312      0.859811823      0.231587417
Mg      0.082568431      0.363018942      0.231587417
Mg      0.743427520      0.473071841      0.769140526
O       0.502552165      0.122437053      0.441459557
O       0.475387530      0.919609788      0.880074017
O       0.366010628      0.398660850      0.764929350
O       0.005759284      0.619229934      0.441459557
O       0.188789704      0.717040504      0.906090067
O       0.144142928      0.091572305      0.052184578
O       0.292356116      0.821799219      0.415444501
O       0.337003886      0.453681655      0.275763234
O       0.115136185      0.146594104      0.556604224
O       0.962608565      0.849732255      0.795360261
O       0.634790840      0.514812379      0.307033724
O       0.943863576      0.012589551      0.388960832
O       0.743689827      0.163528145      0.136545337
O       0.652005707      0.654404223      0.565032177
O       0.853042882      0.408766970      0.445387561
O       0.768477804      0.186305105      0.609739562
species
Mg  2.0
Al  3.0
O  -2.0
lennard 12 6
Mg O   1.50 0.00 0.00 6.0
Al O   1.50 0.00 0.00 6.0
O O    1.50 0.00 0.00 6.0
Mg Mg  1.50 0.00 0.00 6.0
Mg Al  1.50 0.00 0.00 6.0
Al Al  1.50 0.00 0.00 6.0
buck
Mg O 1428.5 0.2945 0.0 0.0 7.0
Al O 1114.9 0.3118 0.0 0.0 7.0
O O  2023.8 0.2674 0.0 0.0 7.0
maxcyc 850
switch rfo 0.010
