opti conjugate nosymmetry conp 
pressure 100 GPa
vectors
 8.131352906     -1.735779986      0.270568048
-0.250916451      5.306888073      0.293506393
 0.484106272      0.113719288      4.902006822
frac
Al      0.059934425      0.891048548      0.550521577
Al      0.789528733      0.570911247      0.543507067
Al      0.586391182      0.364592844      0.024064820
Al      0.263071976      0.044453438      0.017050310
Al      0.631815977      0.946228587      0.306671019
Al      1.047658904      0.302501482      0.285434806
Al      0.939718640      0.446598178      0.646936032
Al      0.570326045      0.693970732      0.031885424
Mg      0.384900387      0.165406877      0.556220998
Mg      0.314827940      0.620376071      0.292016569
Mg      0.911356091      0.691862582      0.029764241
Mg      0.827154815      0.071437722      0.985071837
O       0.998383605      0.110237368      0.000857553
O       0.694563305      0.124444330      0.022054808
O       0.471926848      0.636696231      0.527314310
O       0.168106548      0.650901087      0.548511565
O       0.686579061      0.129538326      0.579389307
O       0.968090230      0.005946284      0.542295164
O       0.952476576      0.544514706      0.340346352
O       0.714370714      0.668477372      0.262772949
O       0.160122305      0.655995083      0.052932550
O       0.441632420      0.532404094      0.015838407
O       0.170493503      0.125896298      0.289785445
O       0.456761735      0.051902801      0.258461268
O       0.300698058      0.597894479      0.985071837
O       0.652987126      0.890192747      0.681677966
O       0.892405971      0.836696317      0.794956720
O       0.635577201      0.406316865      0.841771360
species
Mg  2.0
Al  3.0
O  -2.0
lennard 12 6
Mg O   1.50 0.00 0.00 6.0
Al O   1.50 0.00 0.00 6.0
O O    1.50 0.00 0.00 6.0
Mg Mg  1.50 0.00 0.00 6.0
Mg Al  1.50 0.00 0.00 6.0
Al Al  1.50 0.00 0.00 6.0
buck
Mg O 1428.5 0.2945 0.0 0.0 7.0
Al O 1114.9 0.3118 0.0 0.0 7.0
O O  2023.8 0.2674 0.0 0.0 7.0
maxcyc 850
switch rfo 0.010
