opti conjugate nosymmetry conp 
pressure 100 GPa
vectors
 5.491011972     -2.952562534      0.026402097
-0.030297609      5.655491161     -0.002907690
-0.004311799      0.004053090      6.722955482
frac
Al      0.820964940      0.663636259      0.344471194
Al      0.553115989      0.764528411      0.127500951
Al      0.413462288      0.330593999      0.344466855
Al      0.145613337      0.229701847      0.127500951
Al      0.783634945      0.061161630      0.513087794
Al      0.416685118      0.092765010      0.519841536
Al      0.092725956      0.373881914      0.815049130
Al      0.480404788      0.769694396      0.625049592
Mg      0.723676172      0.250853503      0.127501818
Mg      0.242902973      0.684785312      0.344464251
Mg      0.121695359      0.018214359      0.625048724
Mg      0.582879930      0.376935938      0.625048724
O       0.690847363      0.029667162      0.344469458
O       0.275733517      0.463598102      0.127500083
O       0.259617225      0.131467971      0.344470326
O       0.706960184      0.565403251      0.127504422
O       0.497977789      0.203505279      0.127500951
O       0.065151643      0.794863838      0.127503554
O       0.468599620      0.637440559      0.344466855
O       0.033561281      0.360932029      0.344469458
O       0.783627134      0.061158158      0.737008785
O       0.832284102      0.538879936      0.510395671
O       0.398735023      0.083978724      0.357251844
O       0.677292587      0.664157418      0.408201718
O       0.677288248      0.664154815      0.841895730
O       0.397073058      0.493723944      0.520739779
O       0.397072190      0.493717001      0.729359405
O       0.832281499      0.538875597      0.739701777
species
Mg  2.0
Al  3.0
O  -2.0
lennard 12 6
Mg O   1.50 0.00 0.00 6.0
Al O   1.50 0.00 0.00 6.0
O O    1.50 0.00 0.00 6.0
Mg Mg  1.50 0.00 0.00 6.0
Mg Al  1.50 0.00 0.00 6.0
Al Al  1.50 0.00 0.00 6.0
buck
Mg O 1428.5 0.2945 0.0 0.0 7.0
Al O 1114.9 0.3118 0.0 0.0 7.0
O O  2023.8 0.2674 0.0 0.0 7.0
maxcyc 850
switch rfo 0.010
