opti conjugate nosymmetry conp 
pressure 100 GPa
vectors
 5.074097589     -1.215587248     -0.245543367
 0.035325600      6.563039979     -0.658646021
-0.445055780      0.038263197      6.271581192
frac
Al      0.138750422      0.316002122      0.057195708
Al      0.132095453      0.301311415      0.512910868
Al      0.589856878      0.025764343      0.876653798
Al      0.235186258      0.440799003      0.875080000
Al      0.139073567      0.677176695      0.410654388
Al      0.063892691      0.920412140      0.619040652
Al      0.693776327      0.502503105      0.038057215
Al      0.514227650      0.440926203      0.614621826
Mg      0.596756108      0.325350418      0.741904493
Mg      0.140903609      0.014109851      0.199513427
Mg      0.599007921      0.315357825      0.286934100
Mg      0.869240771      0.453613967      0.326674574
O       0.287860450      0.237489152      0.814799452
O       0.274462946      0.263739412      0.358211403
O       0.460947724      0.267008827      0.559268905
O       0.910982194      0.005282338      0.476827476
O       0.439338430      0.216646747      0.103321467
O       0.702726432      0.913486178      0.869124632
O       0.628293088      0.875501235      0.538889749
O       0.121908908      0.509087100      0.080014862
O       0.145723006      0.867659985      0.059231448
O       0.674631769      0.384994043      0.557692342
O       0.557567907      0.677194208      0.026583384
O       0.721841495      0.668302174      0.509854911
O       0.462411062      0.679975101      0.347702249
O       0.340231539      0.390012001      0.267118128
O       0.241006130      0.484447122      0.540499109
O       0.802238502      0.687582228      0.198245647
species
Mg  2.0
Al  3.0
O  -2.0
lennard 12 6
Mg O   1.50 0.00 0.00 6.0
Al O   1.50 0.00 0.00 6.0
O O    1.50 0.00 0.00 6.0
Mg Mg  1.50 0.00 0.00 6.0
Mg Al  1.50 0.00 0.00 6.0
Al Al  1.50 0.00 0.00 6.0
buck
Mg O 1428.5 0.2945 0.0 0.0 7.0
Al O 1114.9 0.3118 0.0 0.0 7.0
O O  2023.8 0.2674 0.0 0.0 7.0
maxcyc 850
switch rfo 0.010
