opti conjugate nosymmetry conp 
pressure 100 GPa
vectors
 5.108840948      0.001621492     -0.666357097
-0.000502740      9.117342071      0.000070841
-0.626490526      0.000454954      4.551028527
frac
Al      0.412368083      0.450277772      0.309521917
Al      0.169786269      0.826791841      0.370623644
Al      0.687408908      0.127196955      0.350330226
Al      0.920549443      0.505649931      0.294612529
Al      0.869893615      0.362784755      0.533956129
Al      0.082901275      0.456376253      0.827628305
Al      0.193854761      0.984516772      0.998442864
Al      0.595560270      0.969043451      0.827627280
Mg      0.139321534      0.142965572      0.203634608
Mg      0.649546385      0.811608689      0.243945630
Mg      0.357217189      0.875454003      0.533937673
Mg      0.894334511      0.858036648      0.581513189
O       0.434898781      0.253569419      0.495333016
O       0.935950991      0.705631151      0.108874229
O       0.594037857      0.481637625      0.021371166
O       0.739010912      0.996044815      0.059906309
O       0.381153828      0.675170517      0.262173000
O       0.200267410      0.953295548      0.059250095
O       0.102576625      0.444299047      0.030031141
O       0.890232356      0.274698485      0.273733645
O       0.117259206      0.800139090      0.832522227
O       0.080606577      0.119521093      0.849619678
O       0.381680642      0.345372526      0.581509088
O       0.706526060      0.471848549      0.998447990
O       0.629924353      0.287470867      0.832525303
O       0.755406827      0.114231393      0.688401224
O       0.593285053      0.632188291      0.849621728
O       0.242745781      0.626901667      0.688403275
species
Mg  2.0
Al  3.0
O  -2.0
lennard 12 6
Mg O   1.50 0.00 0.00 6.0
Al O   1.50 0.00 0.00 6.0
O O    1.50 0.00 0.00 6.0
Mg Mg  1.50 0.00 0.00 6.0
Mg Al  1.50 0.00 0.00 6.0
Al Al  1.50 0.00 0.00 6.0
buck
Mg O 1428.5 0.2945 0.0 0.0 7.0
Al O 1114.9 0.3118 0.0 0.0 7.0
O O  2023.8 0.2674 0.0 0.0 7.0
maxcyc 850
switch rfo 0.010
