opti conjugate nosymmetry conp 
pressure 100 GPa
vectors
 5.185682418     -2.592973941     -0.119662053
-0.030884495      5.157063174     -0.005533443
-0.846794449     -0.001411564      7.827800986
frac
Al      0.114467199      0.421610217      0.268038708
Al      0.223266560      0.004612803      0.268037787
Al      0.027757212      0.615003047      0.905141126
Al      0.027753527      0.615001204      0.552363503
Al      0.323501255      0.309557297      0.498267433
Al      0.323505862      0.309560061      0.037808140
Al      0.887157064      0.071723466      0.368350236
Al      0.741908806      0.895629587      0.051585674
Mg      0.240766305      0.409346021      0.728750472
Mg      0.495871722      0.148914755      0.728751393
Mg      0.890876865      0.246422380      0.176005069
Mg      0.696245638      0.709895661      0.218805363
O       0.488062627      0.176551121      0.146308959
O       0.025992679      0.128608342      0.157291450
O       0.382444954      0.731814217      0.853745759
O       0.488059862      0.176546514      0.389766614
O       0.025991758      0.128600971      0.378785966
O       0.382438504      0.731814217      0.603757027
O       0.436402810      0.590774118      0.386907426
O       0.046808641      0.624326969      0.379738722
O       0.436411103      0.590777804      0.149167226
O       0.046815091      0.624331576      0.156337773
O       0.147533536      0.033968553      0.606458652
O       0.147539064      0.033971317      0.851046899
O       0.604875994      0.069308405      0.628484802
O       0.523044965      0.544191719      0.719277633
O       0.805141749      0.711965186      0.783442138
O       0.754786673      0.252924891      0.509581992
species
Mg  2.0
Al  3.0
O  -2.0
lennard 12 6
Mg O   1.50 0.00 0.00 6.0
Al O   1.50 0.00 0.00 6.0
O O    1.50 0.00 0.00 6.0
Mg Mg  1.50 0.00 0.00 6.0
Mg Al  1.50 0.00 0.00 6.0
Al Al  1.50 0.00 0.00 6.0
buck
Mg O 1428.5 0.2945 0.0 0.0 7.0
Al O 1114.9 0.3118 0.0 0.0 7.0
O O  2023.8 0.2674 0.0 0.0 7.0
maxcyc 850
switch rfo 0.010
