opti conjugate nosymmetry conp 
pressure 100 GPa
vectors
 6.382357649      0.003621059     -0.871697162
 0.016718656      5.816063286     -0.003953023
-0.841559688      0.000103289      5.723119523
frac
Al      0.431942680      0.129950406      0.596608955
Al      0.015668859      0.549184227      0.159634471
Al      0.015670540      0.397023762      0.579970410
Al      0.206822130      0.707316813      0.534287551
Al      0.431946883      0.816258423      0.176276378
Al      0.206822971      0.238892857      0.113956656
Al      0.530183980      0.041555357      0.551723632
Al      0.451794006      0.627152766      0.433128606
Mg      0.406964687      0.409952429      0.459694884
Mg      0.406959643      0.536258082      0.039358105
Mg      0.754914459      0.303013036      0.750966672
Mg      0.655206771      0.795454939      0.025385906
O       0.181966034      0.428248775      0.096835567
O       0.376835067      0.289194358      0.737690227
O       0.219449837      0.030610931      0.382000986
O       0.057978949      0.268720676      0.341852258
O       0.057979790      0.677488153      0.762184835
O       0.219446474      0.074930223      0.802336084
O       0.376837589      0.657015312      0.317357651
O       0.181965193      0.517960055      0.517168984
O       0.791118762      0.203146460      0.138900762
O       0.666955977      0.209079070      0.443241869
O       0.712897763      0.627887511      0.693099980
O       0.613545678      0.625999366      0.177949893
O       0.530065446      0.202684092      0.725219466
O       0.787724977      0.043758754      0.314388144
O       0.448060590      0.779488931      0.231698142
O       0.455524901      0.474818282      0.634559070
species
Mg  2.0
Al  3.0
O  -2.0
lennard 12 6
Mg O   1.50 0.00 0.00 6.0
Al O   1.50 0.00 0.00 6.0
O O    1.50 0.00 0.00 6.0
Mg Mg  1.50 0.00 0.00 6.0
Mg Al  1.50 0.00 0.00 6.0
Al Al  1.50 0.00 0.00 6.0
buck
Mg O 1428.5 0.2945 0.0 0.0 7.0
Al O 1114.9 0.3118 0.0 0.0 7.0
O O  2023.8 0.2674 0.0 0.0 7.0
maxcyc 850
switch rfo 0.010
