opti conjugate nosymmetry conp 
pressure 100 GPa
vectors
 8.120202328     -1.897489855      0.247131494
-0.177752613      5.326176625      0.317214636
 0.391199220      0.095297781      4.874505009
frac
Al      0.363458994      0.069232383      0.281645542
Al      0.504963877      0.746249726      0.534148235
Al      0.128905607      1.027748276      0.005608049
Al      0.270410491      0.633741771      0.187085823
Al      0.749998269      0.704633938      0.871342180
Al      1.009919952      0.594943850      0.387261408
Al      0.896815436      0.136594452      0.873611681
Al      0.683743597      1.003564490      0.353005747
Mg      0.146615005      0.448923569      0.842760852
Mg      0.487254480      0.254050585      0.696995432
Mg      0.767719448      0.721035613      0.308352576
Mg      1.056616638      0.153195338      0.041931914
O       0.452148425      0.487343375      0.346646044
O       0.063819423      0.725103410      0.068990232
O       0.261115065      0.830537245      0.498808697
O       0.034537602      0.513382133      0.470764980
O       0.599331882      0.189590950      0.068990232
O       0.570050061      1.048894592      0.470764980
O       0.212988561      0.156320632      0.649375522
O       0.372753348      0.943460757      0.040947587
O       0.420880924      0.546652451      0.890379691
O       0.181721059      0.215630779      0.122084250
O       0.968093216      0.744824148      0.071335833
O       1.041190666      0.629367662      0.839479188
O       0.844169206      0.621790160      0.593915666
O       0.637537440      0.411922828      0.065538375
O       1.025801109      0.047109249      0.592682916
O       0.739448674      0.172826154      0.630415124
species
Mg  2.0
Al  3.0
O  -2.0
lennard 12 6
Mg O   1.50 0.00 0.00 6.0
Al O   1.50 0.00 0.00 6.0
O O    1.50 0.00 0.00 6.0
Mg Mg  1.50 0.00 0.00 6.0
Mg Al  1.50 0.00 0.00 6.0
Al Al  1.50 0.00 0.00 6.0
buck
Mg O 1428.5 0.2945 0.0 0.0 7.0
Al O 1114.9 0.3118 0.0 0.0 7.0
O O  2023.8 0.2674 0.0 0.0 7.0
maxcyc 850
switch rfo 0.010
