opti conjugate nosymmetry conp 
pressure 100 GPa
vectors
 6.422881190      0.003043664     -0.880937342
 0.017544433      5.774527036     -0.004077006
-0.845256967      0.000309572      5.728812842
frac
Al      0.531636564      0.189720362      0.033713039
Al      0.754130681      0.451076548      0.066727508
Al      0.335404391      0.714585148      0.083147236
Al      0.113286014      0.144927749      0.021659518
Al      0.426082456      0.184376694      0.822389630
Al      0.763579366      0.603180952      0.534201671
Al      0.342805172      0.438218092      0.705234422
Al      0.763459096      0.762159353      0.705377916
Mg      0.310755721      0.313703575      0.362781940
Mg      0.723503359      0.025157295      0.395391639
Mg      0.121043457      0.729756186      0.499872528
Mg      0.007675503      0.334679082      0.623648380
O       0.088760932      0.331755654      0.004767006
O       0.125744304      0.768873267      0.286125300
O       0.678599600      0.587673158      0.215339484
O       0.795875907      0.174357349      0.246512582
O       0.506386546      0.744232063      0.410136714
O       0.360058037      0.139775225      0.245981736
O       0.281030838      0.557468025      0.222344991
O       0.549861998      0.348848893      0.184027039
O       0.088760102      0.420269236      0.419488727
O       0.170951268      0.183238693      0.570617701
O       0.628530503      0.596868862      0.812425486
O       0.583187967      0.183654245      0.565891514
O       0.011359076      0.184376694      0.822389630
O       0.398250370      0.037810133      0.623288400
O       0.346153649      0.595477880      0.532089899
O       0.541730559      0.504188969      0.508793228
species
Mg  2.0
Al  3.0
O  -2.0
lennard 12 6
Mg O   1.50 0.00 0.00 6.0
Al O   1.50 0.00 0.00 6.0
O O    1.50 0.00 0.00 6.0
Mg Mg  1.50 0.00 0.00 6.0
Mg Al  1.50 0.00 0.00 6.0
Al Al  1.50 0.00 0.00 6.0
buck
Mg O 1428.5 0.2945 0.0 0.0 7.0
Al O 1114.9 0.3118 0.0 0.0 7.0
O O  2023.8 0.2674 0.0 0.0 7.0
maxcyc 850
switch rfo 0.010
