opti conjugate nosymmetry conp 
pressure 100 GPa
vectors
 3.941517294     -1.940931049      0.008468986
-0.050770845      7.452556073     -0.002582213
-0.012138182      0.014432330      7.110832351
frac
Al      0.086911668      0.455450244      0.535624107
Al      0.488024431      0.075440057      0.433648041
Al      0.853159293      0.835941638      0.500433428
Al      0.308387727      0.048013789      0.632274162
Al      1.085626893      0.352378919      0.738432065
Al      0.185272681      0.797999348      0.011544906
Al      0.223400656      0.416605833      0.016992897
Al      1.058459744      0.901851326      0.685751844
Mg      0.751008035      0.959138592      0.215874004
Mg      1.065964270      0.637606999      0.215875142
Mg      0.230236270      0.335662693      0.215877417
Mg      0.182751748      0.034140694      0.035948813
O       0.925926209      0.219656542      0.370194698
O       0.925918245      0.219656542      0.061555585
O       0.064468992      1.062959854      0.063731824
O       0.064480368      1.062963267      0.368017322
O       0.364938963      0.786916543      0.380549181
O       0.364935550      0.786914268      0.051201103
O       0.635901729      0.495693028      0.064891044
O       0.635908555      0.495696440      0.366862653
O       0.362659457      0.608822431      0.857077461
O       0.877185770      0.616817520      0.632268474
O       0.516796997      0.921180376      0.738443441
O       0.792197562      0.985409564      0.016987209
O       0.931463189      0.040019837      0.857082011
O       0.754091201      0.229201305      0.011546044
O       0.489682178      0.333046457      0.685764358
O       0.751542965      0.602946700      0.035944262
species
Mg  2.0
Al  3.0
O  -2.0
lennard 12 6
Mg O   1.50 0.00 0.00 6.0
Al O   1.50 0.00 0.00 6.0
O O    1.50 0.00 0.00 6.0
Mg Mg  1.50 0.00 0.00 6.0
Mg Al  1.50 0.00 0.00 6.0
Al Al  1.50 0.00 0.00 6.0
buck
Mg O 1428.5 0.2945 0.0 0.0 7.0
Al O 1114.9 0.3118 0.0 0.0 7.0
O O  2023.8 0.2674 0.0 0.0 7.0
maxcyc 850
switch rfo 0.010
