opti conjugate nosymmetry conp 
pressure 100 GPa
vectors
 7.176884090      0.016858893     -0.652945909
 0.012365914      4.871116449     -0.003093294
-0.209496219     -0.000118505      5.973893547
frac
Al      0.857318453      0.183211779      0.109554476
Al      0.558022411      0.182681676      0.781765310
Al      0.378546951      0.192162805      0.112008370
Al      0.079249945      0.191631739      0.784218241
Al      0.447388956      0.656025854      0.764677652
Al      0.600344819      0.508317045      0.041810194
Al      0.926294430      0.769086179      0.282770832
Al      0.447388956      0.656024890      0.282766013
Mg      0.714966574      0.190013479      0.458479707
Mg      0.221619172      0.184828110      0.435306504
Mg      0.661580367      0.849089294      0.041811158
Mg      0.178441781      0.542008451      0.041812121
O       0.853427499      0.000474740      0.310749694
O       0.378407196      0.376896885      0.310916435
O       0.235070290      0.476379832      0.914359442
O       0.083137044      0.374364922      0.583019168
O       0.595738743      0.339244165      0.072117652
O       0.120756994      0.077133389      0.082483572
O       0.815810440      0.297708201      0.811284326
O       0.340828691      0.035603207      0.821651209
O       0.410928486      0.901667782      0.523718941
O       0.661579403      0.849088331      0.523721832
O       0.926295394      0.769086179      0.764682471
O       0.178440818      0.542007488      0.523724724
O       0.089080906      0.878180372      0.523726651
O       0.089079942      0.878180372      0.041814049
O       0.600345783      0.508315117      0.523721832
O       0.410927522      0.901667782      0.041807302
species
Mg  2.0
Al  3.0
O  -2.0
lennard 12 6
Mg O   1.50 0.00 0.00 6.0
Al O   1.50 0.00 0.00 6.0
O O    1.50 0.00 0.00 6.0
Mg Mg  1.50 0.00 0.00 6.0
Mg Al  1.50 0.00 0.00 6.0
Al Al  1.50 0.00 0.00 6.0
buck
Mg O 1428.5 0.2945 0.0 0.0 7.0
Al O 1114.9 0.3118 0.0 0.0 7.0
O O  2023.8 0.2674 0.0 0.0 7.0
maxcyc 850
switch rfo 0.010
