opti conjugate nosymmetry conp 
pressure 100 GPa
vectors
 5.387639526      0.023088281     -0.210505471
 0.028878751      4.964123864     -0.270191799
-0.747576030     -0.516753434      7.841015920
frac
Al      0.874597560      0.305120952      0.373130803
Al      0.288385065      0.302501414      0.747539939
Al      0.581491312      0.303808801      0.083880966
Al      0.105038337      0.303808801      0.083880966
Al      0.279797994      0.649538844      0.576291822
Al      0.920496698      0.868422294      0.512346115
Al      0.124190358      0.846875184      0.729718256
Al      0.766345102      0.949589870      0.682032937
Mg      0.401001396      0.304641640      0.378560461
Mg      0.761981229      0.302978820      0.742110281
Mg      0.768571091      0.637490301      0.829162569
Mg      0.759465121      0.934402455      0.200250358
O       0.109267333      0.131136525      0.312203902
O       0.016178904      0.014685700      0.902358569
O       0.342149925      0.208872686      0.075049433
O       0.827371541      0.113041794      0.546060363
O       0.677159258      0.012182416      0.218473214
O       0.549516553      0.135426507      0.808050420
O       0.820831747      0.398745868      0.092715357
O       0.766428958      0.613471353      0.354177068
O       0.421456992      0.607877795      0.893364607
O       0.275013453      0.610035175      0.114110518
O       0.611780898      0.628364321      0.162946948
O       0.906646210      0.895560102      0.040320340
O       0.146530285      0.898940060      0.248175810
O       0.605097216      0.621736860      0.633763486
O       0.414395959      0.611806627      0.407688454
O       0.289258444      0.948923789      0.919539028
species
Mg  2.0
Al  3.0
O  -2.0
lennard 12 6
Mg O   1.50 0.00 0.00 6.0
Al O   1.50 0.00 0.00 6.0
O O    1.50 0.00 0.00 6.0
Mg Mg  1.50 0.00 0.00 6.0
Mg Al  1.50 0.00 0.00 6.0
Al Al  1.50 0.00 0.00 6.0
buck
Mg O 1428.5 0.2945 0.0 0.0 7.0
Al O 1114.9 0.3118 0.0 0.0 7.0
O O  2023.8 0.2674 0.0 0.0 7.0
maxcyc 850
switch rfo 0.010
