opti conjugate nosymmetry conp 
pressure 100 GPa
vectors
 6.129857788     -1.134044013      0.746181224
-0.319517050      5.249306504     -0.217183159
 0.516161082     -0.532834440      6.621164287
frac
Al      0.177008022      0.268095936      0.627442461
Al      0.467151385      0.377388083      0.862467347
Al      0.467152326      0.377386202      0.392413814
Al      0.177008022      0.268095936      0.157387987
Al      0.650574928      0.043800684      0.809700270
Al      0.684021117      0.554539231      0.462753758
Al      0.902381666      0.313402708      0.462089102
Al      0.818269346      0.861205916      0.618419506
Mg      0.282394964      0.761059878      0.862464527
Mg      0.282395904      0.761059878      0.392410993
Mg      0.693320656      0.546209882      0.680381023
Mg      0.819126724      0.862063294      0.148365973
O       0.317959214      0.521462311      0.627440580
O       0.300501426      0.161685217      0.862470167
O       0.317959214      0.521461371      0.157387047
O       0.300501426      0.161685217      0.392417574
O       0.558702772      0.239718804      0.157387987
O       0.055629858      0.410250465      0.862469227
O       0.089848816      0.880301178      0.157390808
O       0.526880148      0.709775157      0.862468287
O       0.526879208      0.709774217      0.392413814
O       0.089847875      0.880301178      0.627444341
O       0.055628918      0.410249525      0.392416634
O       0.558703712      0.239720684      0.627442461
O       0.904962260      0.305116605      0.927144086
O       0.684036159      0.554181990      0.217022932
O       0.696423950      0.089648766      0.339646737
O       0.690968508      0.548963456      0.926240643
species
Mg  2.0
Al  3.0
O  -2.0
lennard 12 6
Mg O   1.50 0.00 0.00 6.0
Al O   1.50 0.00 0.00 6.0
O O    1.50 0.00 0.00 6.0
Mg Mg  1.50 0.00 0.00 6.0
Mg Al  1.50 0.00 0.00 6.0
Al Al  1.50 0.00 0.00 6.0
buck
Mg O 1428.5 0.2945 0.0 0.0 7.0
Al O 1114.9 0.3118 0.0 0.0 7.0
O O  2023.8 0.2674 0.0 0.0 7.0
maxcyc 850
switch rfo 0.010
