opti conjugate nosymmetry conp 
pressure 100 GPa
vectors
 6.884347636     -0.999030675     -0.493124047
 0.190091382      5.320714741      0.064532537
-0.275563570      0.076264098      5.674231432
frac
Al      0.364088244      0.657755070      0.583093466
Al      0.157725923      0.172198680      0.628473481
Al      0.060711365      0.657217740      0.287504950
Al      0.458232480      0.173539076      0.925023331
Al      0.554713473      0.056036446      0.847461953
Al      0.968873276      0.721631817      0.332775403
Al      0.724296977      0.955847404      0.351589791
Al      0.671518408      0.662539124      0.840217759
Mg      0.219795428      0.664649511      0.936776217
Mg      0.273185577      0.174392943      0.250178056
Mg      0.908530068      0.441630775      0.452236704
Mg      0.731303769      0.216899562      0.154182329
O       0.206141368      0.369127429      0.451174886
O       0.360144237      0.472526452      0.787031938
O       0.491011603      0.346176572      0.182569161
O       0.212848231      0.076206027      0.915968821
O       0.098941951      0.815914925      0.545146200
O       0.060849117      0.469965827      0.085880909
O       0.425450426      0.000905488      0.690511723
O       0.322014278      0.773812627      0.317426451
O       0.859997388      0.372961873      0.820851385
O       0.658686952      0.377872098      0.376305046
O       0.969291417      0.027724983      0.247431666
O       0.602434296      0.347417174      0.724168018
O       0.721506766      0.678260442      0.426926477
O       0.920132502      0.669039848      0.963537094
O       0.779342105      0.039619529      0.690428538
O       0.558814771      0.821397509      0.108256191
species
Mg  2.0
Al  3.0
O  -2.0
lennard 12 6
Mg O   1.50 0.00 0.00 6.0
Al O   1.50 0.00 0.00 6.0
O O    1.50 0.00 0.00 6.0
Mg Mg  1.50 0.00 0.00 6.0
Mg Al  1.50 0.00 0.00 6.0
Al Al  1.50 0.00 0.00 6.0
buck
Mg O 1428.5 0.2945 0.0 0.0 7.0
Al O 1114.9 0.3118 0.0 0.0 7.0
O O  2023.8 0.2674 0.0 0.0 7.0
maxcyc 850
switch rfo 0.010
