opti conjugate nosymmetry conp 
pressure 100 GPa
vectors
 5.446802610      0.022479858     -0.273225790
 0.032491330      4.890780602     -0.351778967
-0.659236080     -0.673105214      7.895968748
frac
Al      0.726662368      0.740275421      0.245259549
Al      0.237898986      0.424978508      0.151822424
Al      0.714017298      0.118648329      0.043868470
Al      0.235261597      0.725644770      0.003712249
Al      0.237427155      0.723862513      0.484159732
Al      0.709132631      0.078317968      0.544862489
Al      0.440814410      0.181918323      0.885138124
Al      0.934232867      0.890200822      0.895601098
Mg      0.240171558      0.106347646      0.302031030
Mg      0.723675727      0.424298487      0.394298793
Mg      0.499350636      0.513762397      0.968114222
Mg      0.010010356      0.514249794      0.962570938
O       0.924628052      0.583504959      0.086700994
O       0.381136168      0.369818062      0.469528107
O       0.858640788      0.076115442      0.367576622
O       0.524180727      0.798352463      0.408131710
O       0.054716691      0.573937978      0.318029505
O       0.423233220      0.772505855      0.166149547
O       0.073276673      0.090264534      0.102542840
O       0.555153268      0.320114317      0.200505652
O       0.402744947      0.023889969      0.628582708
O       0.662946595      0.139993465      0.658378104
O       0.547562033      0.709861187      0.791562854
O       0.183517684      0.848281802      0.668842050
O       0.892337195      0.032923830      0.631058604
O       0.076769088      0.320337965      0.762418293
O       0.614323684      0.515947412      0.591413128
O       0.704843240      0.024425035      0.922925462
species
Mg  2.0
Al  3.0
O  -2.0
lennard 12 6
Mg O   1.50 0.00 0.00 6.0
Al O   1.50 0.00 0.00 6.0
O O    1.50 0.00 0.00 6.0
Mg Mg  1.50 0.00 0.00 6.0
Mg Al  1.50 0.00 0.00 6.0
Al Al  1.50 0.00 0.00 6.0
buck
Mg O 1428.5 0.2945 0.0 0.0 7.0
Al O 1114.9 0.3118 0.0 0.0 7.0
O O  2023.8 0.2674 0.0 0.0 7.0
maxcyc 850
switch rfo 0.010
