opti conjugate nosymmetry conp 
pressure 100 GPa
vectors
 6.360340820     -0.437768290     -0.161474077
-0.437598823      4.952873643      0.019176052
-0.165259833      0.020387546      6.653005095
frac
Al      0.239943460      0.474067006      0.249158394
Al      0.536564793      0.362337362      0.489432919
Al      0.085289596      0.954613172      0.489429075
Al      0.536565754      0.362337362      0.008888675
Al      0.239945382      0.474067006      0.729702638
Al      0.085290557      0.954611249      0.008883870
Al      0.639128713      0.699402537      0.102374136
Al      0.657260645      0.548075969      0.495482219
Mg      0.428825597      0.866304340      0.249157433
Mg      0.428826558      0.866305301      0.729703599
Mg      0.929646161      0.620769003      0.633713930
Mg      0.953518686      0.856459127      0.333669193
O       0.392471391      0.621359877      0.008886753
O       0.392473313      0.621361800      0.489435802
O       0.410314995      0.253552500      0.729706483
O       0.410315956      0.253552500      0.249161278
O       0.178884425      0.813871092      0.729702638
O       0.146351514      0.333328770      0.489430036
O       0.146350553      0.333327809      0.008883870
O       0.178885386      0.813873014      0.249158394
O       0.925127114      0.854243813      0.825370735
O       0.925762395      0.140693772      0.467616363
O       0.654658012      0.614633402      0.308416542
O       0.714176419      0.074842740      0.595749898
O       0.779199952      0.236150232      0.028524910
O       0.813935681      0.329478839      0.289563793
O       0.827249667      0.585457581      0.942259512
O       0.736056603      0.126757961      0.791777742
species
Mg  2.0
Al  3.0
O  -2.0
lennard 12 6
Mg O   1.50 0.00 0.00 6.0
Al O   1.50 0.00 0.00 6.0
O O    1.50 0.00 0.00 6.0
Mg Mg  1.50 0.00 0.00 6.0
Mg Al  1.50 0.00 0.00 6.0
Al Al  1.50 0.00 0.00 6.0
buck
Mg O 1428.5 0.2945 0.0 0.0 7.0
Al O 1114.9 0.3118 0.0 0.0 7.0
O O  2023.8 0.2674 0.0 0.0 7.0
maxcyc 850
switch rfo 0.010
