opti conjugate nosymmetry conp 
pressure 100 GPa
vectors
 6.781154986     -0.185741416     -0.068443472
-0.185671057      4.533818418      0.008317539
-0.294259730      0.034437190      6.781781425
frac
Al      1.077248700      0.170404410      0.548037494
Al      0.858116755      0.154306950      0.922481061
Al      0.306026063      0.153205662      0.915752322
Al      0.644676651      0.148270958      0.189188480
Al      1.092396609      1.092396609      0.537311789
Al      0.814853089      0.814837547      0.075237827
Al      0.814854199      0.814825335      0.259776041
Al      0.537311789      0.537311789      0.537339544
Mg      0.087751170      0.130331727      0.178064580
Mg      0.522199406      0.220121137      0.550929486
Mg      1.092399939      0.790105187      0.537315120
Mg      1.092393278      0.839603211      0.092404380
O       0.948076022      0.388472812      0.342366356
O       0.420050477      0.422730426      0.322871778
O       0.113473801      0.476311654      0.926746332
O       0.667201993      0.480132858      0.906568999
O       0.238360114      0.029226357      0.696458293
O       0.907952270      0.280667569      0.040836511
O       0.400815678      0.266759363      0.034600688
O       0.832842633      0.094338917      0.696046420
O       0.259769380      0.814883064      0.814860860
O       0.537308459      0.790105187      0.092411041
O       0.259768270      0.814870852      0.109568713
O       0.537311789      1.092396609      0.092423253
O       0.537315120      0.839603211      0.537326222
O       1.092396609      0.537311789      0.092401050
O       0.814855309      0.814837547      0.554483893
O       0.259770490      0.814870852      0.520153007
species
Mg  2.0
Al  3.0
O  -2.0
lennard 12 6
Mg O   1.50 0.00 0.00 6.0
Al O   1.50 0.00 0.00 6.0
O O    1.50 0.00 0.00 6.0
Mg Mg  1.50 0.00 0.00 6.0
Mg Al  1.50 0.00 0.00 6.0
Al Al  1.50 0.00 0.00 6.0
buck
Mg O 1428.5 0.2945 0.0 0.0 7.0
Al O 1114.9 0.3118 0.0 0.0 7.0
O O  2023.8 0.2674 0.0 0.0 7.0
maxcyc 850
switch rfo 0.010
