opti conjugate nosymmetry conp 
pressure 100 GPa
vectors
 6.660523788      0.020772818     -0.804804245
 0.015254257      4.645460524     -0.003463469
-0.924829189     -0.005712475      6.839948475
frac
Al      0.265356433      0.667913300      0.739315849
Al      0.364702328      0.171236847      0.088037085
Al      0.054034061      0.170685603      0.785786382
Al      0.457849485      0.666535692      0.435636670
Al      0.632889529      0.243288386      0.865133144
Al      0.544182334      0.567142479      0.757242473
Al      0.535299409      0.929716680      0.277816642
Al      0.900471758      0.362685141      0.895773683
Mg      0.147122192      0.665664306      0.126259974
Mg      0.201812356      0.163623483      0.423618360
Mg      0.539742372      0.748428579      0.517529558
Mg      0.939518011      0.054158820      0.376222122
O       0.462289447      0.485249591      0.675349586
O       0.364557264      0.362989572      0.294502311
O       0.453406522      0.847823793      0.195923755
O       0.215774525      0.466252197      0.920872068
O       0.058068844      0.360361410      0.576943106
O       0.097118098      0.051837091      0.057390544
O       0.208908492      0.766208731      0.444911768
O       0.325551030      0.008729044      0.824641550
O       0.672038827      0.405799190      0.128523678
O       0.781814330      0.948717075      0.032294160
O       0.732235424      0.747055973      0.213853380
O       0.633030591      0.051536662      0.658663917
O       0.943556795      0.243838629      0.167382848
O       0.795796508      0.250898749      0.529564876
O       0.850469665      0.749302965      0.826909255
O       0.788682365      0.648756540      0.508257461
species
Mg  2.0
Al  3.0
O  -2.0
lennard 12 6
Mg O   1.50 0.00 0.00 6.0
Al O   1.50 0.00 0.00 6.0
O O    1.50 0.00 0.00 6.0
Mg Mg  1.50 0.00 0.00 6.0
Mg Al  1.50 0.00 0.00 6.0
Al Al  1.50 0.00 0.00 6.0
buck
Mg O 1428.5 0.2945 0.0 0.0 7.0
Al O 1114.9 0.3118 0.0 0.0 7.0
O O  2023.8 0.2674 0.0 0.0 7.0
maxcyc 850
switch rfo 0.010
