opti conjugate nosymmetry conp 
pressure 100 GPa
vectors
 4.199228798     -1.038398609      0.680265974
-0.091499922      7.437750832     -0.061601235
 1.598601274     -1.649738717      6.952531856
frac
Al      0.042304807      0.042303589      0.352433386
Al      0.625889405      0.681536077      0.366879931
Al      0.734900689      1.189969889      0.164272534
Al      0.843478223      0.468020364      0.563802282
Al      0.137047476      0.400692955      0.666579068
Al      1.165460640      0.603305225      0.832016798
Al      0.556278719      1.212509077      0.832018016
Al      0.597091395      0.804025323      0.837845613
Mg      0.213779699      1.090016176      0.571386809
Mg      0.129306950      0.570291470      0.157795531
Mg      0.746247673      1.009891934      0.666583941
Mg      1.206296466      0.194825126      0.837851705
O       1.031680500      0.847634178      0.156627087
O       0.451900959      0.284089790      0.165133942
O       0.467975283      0.899980210      0.005584729
O       1.024902552      0.856610116      0.455864407
O       0.463953351      0.273294784      0.447183322
O       1.081961347      0.274698378      0.601978345
O       0.408554014      0.840560160      0.614783708
O       1.038370723      0.230574096      0.311506180
O       0.464664896      0.893878473      0.308127563
O       0.273049930      0.888853844      0.092255636
O       0.078896997      1.194130762      0.035011644
O       0.911307700      0.868163010      0.148762496
O       0.302092882      0.258960376      0.148767370
O       0.882237943      0.279657302      0.092233705
O       1.162760670      1.003595253      0.858153871
O       0.688086228      0.584934221      0.035009208
species
Mg  2.0
Al  3.0
O  -2.0
lennard 12 6
Mg O   1.50 0.00 0.00 6.0
Al O   1.50 0.00 0.00 6.0
O O    1.50 0.00 0.00 6.0
Mg Mg  1.50 0.00 0.00 6.0
Mg Al  1.50 0.00 0.00 6.0
Al Al  1.50 0.00 0.00 6.0
buck
Mg O 1428.5 0.2945 0.0 0.0 7.0
Al O 1114.9 0.3118 0.0 0.0 7.0
O O  2023.8 0.2674 0.0 0.0 7.0
maxcyc 850
switch rfo 0.010
