opti conjugate nosymmetry conp 
pressure 100 GPa
vectors
 5.623462978     -2.149345260      0.103638493
 0.289430473      5.076459663      0.083097972
 1.657754283     -1.701354081      7.151360000
frac
Al      0.303448199      0.586287955      0.041551247
Al      0.223305295      1.073655188      0.071741028
Al      0.096301283      0.680531675      0.453894700
Al      0.987492782      0.823129243      0.706617307
Al      0.591728349      0.591728349      0.293386764
Al      0.754263652      0.419131776      0.104523833
Al      0.671526370      1.103450996      0.699429662
Al      1.003236864      0.233000041      0.550345985
Mg      0.238978969      0.228010739      0.445045888
Mg      0.469206783      1.067657329      0.421389787
Mg      0.758904653      0.423775164      0.507841856
Mg      0.951016347      0.178053875      0.249991191
O       0.312007022      0.877026603      0.800417257
O       0.154592455      1.036454379      0.303290674
O       0.370686038      0.660478347      0.262077768
O       0.528489643      1.151536662      0.164491847
O       0.542662061      0.235951398      0.595680941
O       0.101311034      0.422056879      0.744318299
O       0.030207881      0.660975981      0.014549721
O       0.300039944      0.247214390      0.133575305
O       0.999994488      0.227023662      0.846673167
O       0.586311660      0.586310466      0.890068741
O       1.158995039      0.020132127      0.307535316
O       0.999297562      0.812556017      0.982872068
O       0.987511876      0.822675764      0.394688053
O       0.945036388      0.174800758      0.147029155
O       1.157906689      0.019043777      0.904218486
O       0.996311760      0.816051387      0.101598473
species
Mg  2.0
Al  3.0
O  -2.0
lennard 12 6
Mg O   1.50 0.00 0.00 6.0
Al O   1.50 0.00 0.00 6.0
O O    1.50 0.00 0.00 6.0
Mg Mg  1.50 0.00 0.00 6.0
Mg Al  1.50 0.00 0.00 6.0
Al Al  1.50 0.00 0.00 6.0
buck
Mg O 1428.5 0.2945 0.0 0.0 7.0
Al O 1114.9 0.3118 0.0 0.0 7.0
O O  2023.8 0.2674 0.0 0.0 7.0
maxcyc 850
switch rfo 0.010
