opti conjugate nosymmetry conp 
pressure 100 GPa
vectors
 5.746947662     -0.313346414     -0.942994865
-0.493574331      6.059981592     -0.030614821
-0.985240377     -0.070229110      6.168167679
frac
Al      0.201067785      0.524984185      0.442631955
Al      0.636370150      1.069973143      0.069283959
Al      1.051047281      1.067010824      0.492686404
Al      0.944039598      0.524391506      0.116595919
Al      0.743377833      0.534991842      0.445375521
Al      0.408750104      0.534398085      0.119338407
Al      0.329808434      0.261478993      0.641607239
Al      1.008089855      0.719506832      0.696869721
Mg      0.100801558      1.069431111      0.075424115
Mg      0.509017409      1.067550701      0.486546248
Mg      0.820740742      0.760049319      0.885993639
Mg      0.521485183      0.018196053      0.035828318
O       0.026851364      0.206626038      0.297124912
O       0.848491097      0.873221982      0.000384468
O       0.341065067      0.181311095      0.000851068
O       0.582964370      0.852759465      0.264842217
O       0.986208181      0.699435523      0.400775876
O       0.455156882      0.406383698      0.412365447
O       0.154659930      0.652996417      0.149599527
O       0.701207095      0.359951058      0.161190176
O       0.722315053      0.021548462      0.807683481
O       0.699781392      0.439509035      0.904839759
O       0.803212525      0.459074990      0.663842405
O       0.103279995      0.345063995      0.859701314
O       0.331568152      0.806282603      0.895699568
O       0.124450494      0.009339271      0.847572943
O       0.472738939      0.802060572      0.664298230
O       1.060378166      1.060378166      0.060378166
species
Mg  2.0
Al  3.0
O  -2.0
lennard 12 6
Mg O   1.50 0.00 0.00 6.0
Al O   1.50 0.00 0.00 6.0
O O    1.50 0.00 0.00 6.0
Mg Mg  1.50 0.00 0.00 6.0
Mg Al  1.50 0.00 0.00 6.0
Al Al  1.50 0.00 0.00 6.0
buck
Mg O 1428.5 0.2945 0.0 0.0 7.0
Al O 1114.9 0.3118 0.0 0.0 7.0
O O  2023.8 0.2674 0.0 0.0 7.0
maxcyc 850
switch rfo 0.010
