opti conjugate nosymmetry conp 
pressure 100 GPa
vectors
 4.980335311     -3.051355707     -0.106894750
-0.325370016      6.078844498     -0.017780232
-1.439412192     -0.251782089      7.145066888
frac
Al      0.407307561      0.705755806      0.556531683
Al      0.513026970      0.300562984      0.556530788
Al      0.007359658      0.297414958      0.360515148
Al      0.007355181      0.297412272      0.752546428
Al      0.323052208      0.893673965      0.280255711
Al      0.323048627      0.893672174      0.832807656
Al      0.740244049      0.688201345      0.677222649
Al      0.592469486      0.114027763      0.022773514
Mg      0.530031323      0.693838791      0.108858420
Mg      0.037241729      0.825827562      0.556530788
Mg      0.120162125      0.203137137      0.108861106
Mg      0.586231632      0.076554974      0.552923979
O       0.321337626      0.421048389      0.448919519
O       0.321336731      0.421041226      0.664143847
O       0.341564319      0.007390995      0.665069632
O       0.341570586      0.007395471      0.447992839
O       0.226178788      0.558292823      0.238464683
O       0.226176101      0.558291032      0.874596892
O       0.439437838      0.329087715      0.885371449
O       0.439443210      0.329090401      0.227692812
O       0.598724352      0.799615135      0.331868283
O       0.615537997      0.824213787      0.781134361
O       0.616314260      0.520671936      0.321791198
O       0.786939765      0.730166964      0.150660719
O       0.888763536      0.233220292      0.615574706
O       0.788401860      0.287484342      0.361778109
O       0.788240698      0.416720829      0.662766442
O       0.675810694      0.409435423      0.042441513
species
Mg  2.0
Al  3.0
O  -2.0
lennard 12 6
Mg O   1.50 0.00 0.00 6.0
Al O   1.50 0.00 0.00 6.0
O O    1.50 0.00 0.00 6.0
Mg Mg  1.50 0.00 0.00 6.0
Mg Al  1.50 0.00 0.00 6.0
Al Al  1.50 0.00 0.00 6.0
buck
Mg O 1428.5 0.2945 0.0 0.0 7.0
Al O 1114.9 0.3118 0.0 0.0 7.0
O O  2023.8 0.2674 0.0 0.0 7.0
maxcyc 850
switch rfo 0.010
