opti conjugate nosymmetry conp 
pressure 100 GPa
vectors
 4.822630785     -4.837266743     -0.945661630
-0.074033105      9.531473574      0.806010946
-0.523170693      0.667985473      4.678979886
frac
Al      0.720383573      0.955226833      0.596564436
Al      0.655001640      0.204014151      0.576278466
Al      0.164577445      0.710887801      0.573866715
Al      0.873947640      0.453263245      0.080137306
Al      0.979785105      0.212336881      0.164452082
Al      0.475112277      0.697055056      0.170880433
Al      0.092253768      0.963438129      0.435237794
Al      0.472926515      0.266462122      0.760076117
Mg      0.351379699      0.962489945      0.058520098
Mg      0.583893788      0.449580947      0.436650619
Mg      0.226282055      0.453728880      0.651893427
Mg      0.876292866      0.660620241      0.782932034
O       0.588500392      0.642234483      0.509580218
O       0.970124171      0.763659779      0.262326987
O       0.724422062      0.146765908      0.309996878
O       0.823097900      0.952225079      0.249941890
O       0.378543736      0.162871111      0.285182905
O       0.352838291      0.770766684      0.307616965
O       0.498541283      0.477765800      0.013183357
O       0.912429197      0.460459695      0.454356692
O       0.205908530      0.266510738      0.486951148
O       0.126441135      0.457847960      0.080614881
O       0.371366190      0.952206175      0.664516316
O       0.325900243      0.455027422      0.747691019
O       0.415231540      0.958208825      0.952105821
O       0.850587421      0.273569027      0.805366094
O       0.227224406      0.644515037      0.807746007
O       0.086696132      0.947330077      0.934399748
species
Mg  2.0
Al  3.0
O  -2.0
lennard 12 6
Mg O   1.50 0.00 0.00 6.0
Al O   1.50 0.00 0.00 6.0
O O    1.50 0.00 0.00 6.0
Mg Mg  1.50 0.00 0.00 6.0
Mg Al  1.50 0.00 0.00 6.0
Al Al  1.50 0.00 0.00 6.0
buck
Mg O 1428.5 0.2945 0.0 0.0 7.0
Al O 1114.9 0.3118 0.0 0.0 7.0
O O  2023.8 0.2674 0.0 0.0 7.0
maxcyc 850
switch rfo 0.010
