opti conjugate nosymmetry conp 
pressure 100 GPa
vectors
 5.690876199     -0.289322530      0.002017309
 0.124640246      5.973415406     -1.078046748
 0.120084987     -0.106799212      6.135629327
frac
Al      0.294588910      0.049121799      0.047752001
Al      0.565730339      0.349610551      0.009701678
Al      0.635089597      0.000148106      0.830355833
Al      0.085286515      0.266776204      0.025704573
Al      0.756014404      0.324570747      0.460499283
Al      0.834180505      0.834180505      0.834180505
Al      0.242879548      0.698664446      0.474021851
Al      0.175370883      0.732547304      0.703127392
Mg      0.305805198      0.297956187      0.453269414
Mg      0.470559270      0.044829651      0.436340795
Mg      0.029958291      0.019113488      0.446545106
Mg      0.828021539      0.576565405      0.108512103
O       0.132843440      0.074521986      0.754050230
O       0.245417091      0.022500408      0.351827506
O       0.071761895      0.285045585      0.322465665
O       0.701549564      0.449615196      0.223685640
O       0.512982869      0.104854813      0.114125715
O       0.674282557      0.040350480      0.529371767
O       0.523124840      0.303638629      0.561065852
O       0.207288202      0.436818174      0.667432713
O       0.762442378      0.280820049      0.772766248
O       0.349501241      0.311698574      0.092001428
O       0.403267175      0.830271799      0.619854948
O       0.401366196      0.831836306      0.198106625
O       0.529418393      0.519483088      0.607010958
O       0.832729579      0.844679443      0.410142638
O       0.397515561      0.554293378      0.750339306
O       0.260218081      0.709254761      0.047895128
species
Mg  2.0
Al  3.0
O  -2.0
lennard 12 6
Mg O   1.50 0.00 0.00 6.0
Al O   1.50 0.00 0.00 6.0
O O    1.50 0.00 0.00 6.0
Mg Mg  1.50 0.00 0.00 6.0
Mg Al  1.50 0.00 0.00 6.0
Al Al  1.50 0.00 0.00 6.0
buck
Mg O 1428.5 0.2945 0.0 0.0 7.0
Al O 1114.9 0.3118 0.0 0.0 7.0
O O  2023.8 0.2674 0.0 0.0 7.0
maxcyc 850
switch rfo 0.010
