opti conjugate nosymmetry conp 
pressure 100 GPa
vectors
 5.646931650     -0.320444850     -0.401774464
-1.108529918      6.294451229     -0.749843427
-0.089464326     -0.511073672      5.990938788
frac
Al      0.032498116      0.066851955      0.868458887
Al      0.032497187      0.578637101      0.403875079
Al      0.281738831      0.871412687      0.440858441
Al      0.281740689      0.703235623      0.905439462
Al      0.835217458      0.689824331      0.851353254
Al      0.523897693      0.566334297      0.790107661
Al      0.832509886      0.692154665      0.165187042
Al      0.608733735      0.015872859      0.630657269
Mg      0.247429591      0.394290791      0.809033518
Mg      0.247433308      0.251201052      0.344450639
Mg      0.837611904      0.221579632      0.283299097
Mg      0.523050299      0.565486903      0.325527569
O       0.052915482      0.817754616      0.107681112
O       0.004208905      0.374837894      0.360969249
O       0.197127646      0.095270320      0.607336071
O       0.328502534      0.561427196      0.642256698
O       0.328503463      0.084061860      0.177673820
O       0.197125788      0.550221524      0.142763413
O       0.004211692      0.270650233      0.825551199
O       0.052913623      0.756895553      0.572259345
O       0.867806823      0.251773621      0.747879189
O       0.686727440      0.400401155      0.011122063
O       0.834155428      0.218528270      0.040234510
O       0.826995320      0.699019300      0.636257318
O       0.606183190      0.024062477      0.171017522
O       0.827340968      0.698999788      0.393387854
O       0.870854468      0.255229168      0.504815531
O       0.688985300      0.402658085      0.475702155
species
Mg  2.0
Al  3.0
O  -2.0
lennard 12 6
Mg O   1.50 0.00 0.00 6.0
Al O   1.50 0.00 0.00 6.0
O O    1.50 0.00 0.00 6.0
Mg Mg  1.50 0.00 0.00 6.0
Mg Al  1.50 0.00 0.00 6.0
Al Al  1.50 0.00 0.00 6.0
buck
Mg O 1428.5 0.2945 0.0 0.0 7.0
Al O 1114.9 0.3118 0.0 0.0 7.0
O O  2023.8 0.2674 0.0 0.0 7.0
maxcyc 850
switch rfo 0.010
