opti conjugate nosymmetry conp 
pressure 100 GPa
vectors
12.393494118     -3.113089969     -3.666225887
-2.854374251      8.951455921      0.676197077
-0.284579365      0.145700921      2.122535432
frac
Al      0.248791503     -0.000000000      0.179611861
Al      0.821262368      0.119653394      0.393122544
Al      0.701608974      0.452817471      0.179611861
Al      0.368444897      0.572470865      0.393122544
Al      0.050458356      0.810499803      0.791778517
Al      0.503275828      0.357682332      0.791778517
Al      0.170111751      0.477336632      0.099654258
Al      0.622929222      0.024519160      0.099654258
Mg      0.806287695      0.609095648      0.530822526
Mg      0.065433030      0.321058455      0.654078536
Mg      0.353470224      0.156278177      0.530822526
Mg      0.518250501      0.773875926      0.654078536
O       0.323785321      0.353545391      0.234574846
O       0.901057863      0.554590009      0.845373088
O       0.162251745      0.643742524      0.363240213
O       0.876297804      0.375563188      0.339527068
O       0.776602793      0.806362862      0.234574846
O       0.448240392      0.101772538      0.845373088
O       0.615069216      0.190925053      0.363240213
O       0.423480333      0.828380659      0.339527068
O       0.121557039      0.073639894      0.490556185
O       0.256650603      0.739228144      0.821660848
O       0.574374510      0.526457365      0.490556185
O       0.709468074      0.286410673      0.821660848
O       0.750163686      0.856513303      0.694343971
O       0.297346215      0.403695832      0.694343971
O       0.095117932      0.123791240      0.044690367
O       0.547935403      0.576608711      0.044690367
species
Mg  2.0
Al  3.0
O  -2.0
lennard 12 6
Mg O   1.50 0.00 0.00 6.0
Al O   1.50 0.00 0.00 6.0
O O    1.50 0.00 0.00 6.0
Mg Mg  1.50 0.00 0.00 6.0
Mg Al  1.50 0.00 0.00 6.0
Al Al  1.50 0.00 0.00 6.0
buck
Mg O 1428.5 0.2945 0.0 0.0 7.0
Al O 1114.9 0.3118 0.0 0.0 7.0
O O  2023.8 0.2674 0.0 0.0 7.0
maxcyc 850
switch rfo 0.010
