opti conjugate nosymmetry conp 
pressure 100 GPa
vectors
 5.322818168     -0.628845759     -0.231685212
-0.628566754      4.743851912      0.028155364
-0.491355564      0.057503299      8.396890725
frac
Al      0.773005884      0.954837528      0.299738070
Al      0.492953303      0.451607622      0.135283625
Al      0.577038574      0.940441745      0.634598871
Al      0.990790251      0.446721991      0.136278423
Al      0.174529507      0.413738770      0.792351831
Al      0.083309885      0.939456875      0.628581434
Al      0.406305582      0.239011693      0.620368888
Al      0.386161415      0.935043823      0.971635917
Mg      0.880921636      0.919000964      0.961687935
Mg      0.777017840      0.457945738      0.471317931
Mg      0.281663916      0.500540377      0.459963133
Mg      0.276631349      0.006486045      0.302324346
O       0.965805129      0.516941641      0.915231255
O       0.657488166      0.157041113      0.115808613
O       0.801678312      0.701415160      0.161369776
O       0.185280675      0.187677325      0.098374823
O       0.772349635      0.699126727      0.669300650
O       0.903925105      0.235594432      0.638413257
O       0.671241599      0.421468809      0.790047513
O       0.022796963      0.828583534      0.432469173
O       0.276893451      0.689995829      0.663034017
O       0.621605932      0.060632059      0.838966368
O       0.981536245      0.299374700      0.328889033
O       0.476911437      0.539174687      0.915253097
O       0.301662140      0.712755065      0.143047419
O       0.168079204      0.048194103      0.833389740
O       0.554436202      0.886812986      0.432100840
O       0.495641840      0.382853363      0.328523678
species
Mg  2.0
Al  3.0
O  -2.0
lennard 12 6
Mg O   1.50 0.00 0.00 6.0
Al O   1.50 0.00 0.00 6.0
O O    1.50 0.00 0.00 6.0
Mg Mg  1.50 0.00 0.00 6.0
Mg Al  1.50 0.00 0.00 6.0
Al Al  1.50 0.00 0.00 6.0
buck
Mg O 1428.5 0.2945 0.0 0.0 7.0
Al O 1114.9 0.3118 0.0 0.0 7.0
O O  2023.8 0.2674 0.0 0.0 7.0
maxcyc 850
switch rfo 0.010
