opti conjugate nosymmetry conp 
pressure 100 GPa
vectors
19.272856974     -2.390466333     -0.739744579
-1.221952035     10.325516420      3.583369845
-3.092590591      5.519070425      2.965483197
frac
Al      0.534921558      0.139744279      0.096564625
Al      0.198147158      0.425497733      0.465823491
Al      0.415574357      0.423944504      0.122809619
Al      0.359467138      0.139433520      0.490630518
Al      0.024352755      0.424719706      0.294315707
Al      0.254254377      0.144991582      0.098003156
Al      0.078799392      0.144680258      0.492068484
Al      0.306860758      0.424719706      0.294315707
Mg      0.451471519      0.143731597      0.301112850
Mg      0.482349079      0.425213530      0.469042952
Mg      0.131372436      0.424227577      0.119590158
Mg      0.162259601      0.140691810      0.287528170
O       0.443574855      0.537835910      0.020271079
O       0.532640588      0.032619504      0.214510021
O       0.309368299      0.322335416      0.429697497
O       0.254172450      0.253287070      0.214607769
O       0.304351521      0.527105126      0.158933917
O       0.043310172      0.524562554      0.429942149
O       0.447453690      0.368428292      0.289079139
O       0.170144965      0.311606327      0.003344330
O       0.081078102      0.251802773      0.374120828
O       0.381577344      0.231214155      0.074618274
O       0.103131806      0.077558617      0.080695021
O       0.359546805      0.031138597      0.374023645
O       0.005393643      0.324879118      0.158688700
O       0.510588579      0.206864790      0.507935263
O       0.166267260      0.481011686      0.299553971
O       0.232143041      0.053212642      0.514012576
species
Mg  2.0
Al  3.0
O  -2.0
lennard 12 6
Mg O   1.50 0.00 0.00 6.0
Al O   1.50 0.00 0.00 6.0
O O    1.50 0.00 0.00 6.0
Mg Mg  1.50 0.00 0.00 6.0
Mg Al  1.50 0.00 0.00 6.0
Al Al  1.50 0.00 0.00 6.0
buck
Mg O 1428.5 0.2945 0.0 0.0 7.0
Al O 1114.9 0.3118 0.0 0.0 7.0
O O  2023.8 0.2674 0.0 0.0 7.0
maxcyc 850
switch rfo 0.010
