opti conjugate nosymmetry conp 
pressure 100 GPa
vectors
 6.860731913     -2.667564903      0.063525574
 0.475047717      6.153016556      0.175904614
 0.120575855      0.122644896      4.793413783
frac
Al      0.020305884      0.519595667      0.976042473
Al      0.810779757      0.524599706      0.523002715
Al      0.453199060      0.205794835      0.499107582
Al      0.131261935      0.874927235      0.478641402
Al      0.550994866      0.799653586      0.843280123
Al      0.566762667      0.778354062      0.497298522
Al      0.353106333      0.845734353      0.008577357
Al      0.753452348      0.493562916      0.877511891
Mg      0.180266869      0.181011600      0.968247682
Mg      0.823856368      0.814705528      0.000148349
Mg      0.649677780      0.180299724      0.636614112
Mg      0.502257757      0.489614246      0.987939262
O       0.458408199      0.170651069      0.141313821
O       0.884783977      0.360551658      0.296636162
O       0.622207338      0.554212744      0.350816383
O       0.704819780      0.196615121      0.007530949
O       0.933740124      0.179884546      0.843127792
O       0.370577658      0.407612126      0.646228916
O       0.212125054      0.467503283      0.439777960
O       0.289608007      0.991518554      0.728116538
O       0.069765821      0.589576544      0.600385109
O       0.257818520      0.514373585      0.088872966
O       0.081589929      0.821330453      0.125823801
O       0.708999437      0.976599031      0.249832568
O       0.360600444      0.794727206      0.372636621
O       0.877643315      0.117987193      0.497815254
O       0.131688065      0.167762745      0.391667103
O       0.874799794      0.830727214      0.574591309
species
Mg  2.0
Al  3.0
O  -2.0
lennard 12 6
Mg O   1.50 0.00 0.00 6.0
Al O   1.50 0.00 0.00 6.0
O O    1.50 0.00 0.00 6.0
Mg Mg  1.50 0.00 0.00 6.0
Mg Al  1.50 0.00 0.00 6.0
Al Al  1.50 0.00 0.00 6.0
buck
Mg O 1428.5 0.2945 0.0 0.0 7.0
Al O 1114.9 0.3118 0.0 0.0 7.0
O O  2023.8 0.2674 0.0 0.0 7.0
maxcyc 850
switch rfo 0.010
