opti conjugate nosymmetry conp 
pressure 100 GPa
vectors
 9.656202318      0.015548895      0.528370114
-0.181410795      2.794701010      0.542983250
 0.492041782      0.734715241      7.885483710
frac
Al      0.000987930      0.755165125      0.446161019
Al      0.663043083      0.464663201      0.439795849
Al      0.478710145      0.277443865      0.923883235
Al      0.185320868      0.942384461      0.917518064
Al      0.042207713      0.327514886      0.702606126
Al      0.419555714      0.698823522      0.683335768
Al      0.519929929      0.805237101      0.224883911
Al      0.897277929      0.221100351      0.205613552
Mg      0.295871521      0.096696709      0.451332840
Mg      0.232285739      0.509549025      0.211586036
Mg      0.710006999      0.031824899      0.689309206
Mg      0.773592781      0.574417969      0.929055056
O       0.852564085      0.046634287      0.902824284
O       0.576868684      0.059526099      0.922059291
O       0.374841870      0.524358413      0.425102069
O       0.099146469      0.537248314      0.444337076
O       0.569623549      0.064148539      0.472356439
O       0.825074994      0.907441947      0.438696132
O       0.810906708      0.440710209      0.255441890
O       0.594842505      0.553197548      0.185049522
O       0.333184493      0.918435291      0.733165061
O       0.117121245      0.075475333      0.662771737
O       0.091901333      0.541870754      0.950078655
O       0.347351823      0.429720687      0.916418348
O       0.101312461      0.060843657      0.209561449
O       0.361080604      0.949144230      0.181136977
O       0.838802819      0.471420104      0.658859192
O       0.579034676      0.538565872      0.687284620
species
Mg  2.0
Al  3.0
O  -2.0
lennard 12 6
Mg O   1.50 0.00 0.00 6.0
Al O   1.50 0.00 0.00 6.0
O O    1.50 0.00 0.00 6.0
Mg Mg  1.50 0.00 0.00 6.0
Mg Al  1.50 0.00 0.00 6.0
Al Al  1.50 0.00 0.00 6.0
buck
Mg O 1428.5 0.2945 0.0 0.0 7.0
Al O 1114.9 0.3118 0.0 0.0 7.0
O O  2023.8 0.2674 0.0 0.0 7.0
maxcyc 850
switch rfo 0.010
