opti conjugate nosymmetry conp 
pressure 100 GPa
vectors
14.536679607      1.554180894      6.027436761
 5.453648951      7.383704400     -3.002594173
 3.462137294     -2.517514929      5.776462320
frac
Al      0.512968525      0.068961633      0.290965079
Al      0.473887841      0.306620164      0.305686748
Al      0.264887625      0.120283800      0.291720424
Al      0.076720508      0.511381019      0.279758268
Al      0.123983712      0.273248215      0.257043206
Al      0.331263743      0.454935540      0.290663057
Al      0.206385022      0.494318245      0.005013328
Al      0.411955924      0.114918404      0.004401720
Mg      0.105363111      0.105798394      0.565925333
Mg      0.481530912      0.476182392      0.000086708
Mg      0.011868466      0.303695383      0.570481264
Mg      0.293561651      0.286171720      0.577434748
O       0.267932283      0.099742829      0.082595675
O       0.517142128      0.210736696      0.173379107
O       0.363670269      0.323928513      0.205046583
O       0.440380885      0.288479655      0.512891710
O       0.545756216      0.105139649      0.492794752
O       0.216596733      0.238242789      0.377710498
O       0.322047715      0.467384772      0.492883787
O       0.169271262      0.579526787      0.425572508
O       0.040777010      0.344598090      0.350915524
O       0.150690814      0.300643160      0.051944832
O       0.047688013      0.480054555      0.073542006
O       0.414398867      0.570806563      0.146023153
O       0.210765210      0.464505381      0.217800164
O       0.379726304      0.105382314      0.372090799
O       0.076969574      0.098054650      0.228923177
O       0.511306532      0.485546812      0.335839459
species
Mg  2.0
Al  3.0
O  -2.0
lennard 12 6
Mg O   1.50 0.00 0.00 6.0
Al O   1.50 0.00 0.00 6.0
O O    1.50 0.00 0.00 6.0
Mg Mg  1.50 0.00 0.00 6.0
Mg Al  1.50 0.00 0.00 6.0
Al Al  1.50 0.00 0.00 6.0
buck
Mg O 1428.5 0.2945 0.0 0.0 7.0
Al O 1114.9 0.3118 0.0 0.0 7.0
O O  2023.8 0.2674 0.0 0.0 7.0
maxcyc 850
switch rfo 0.010
