opti conjugate nosymmetry conp 
pressure 100 GPa
vectors
 5.183826131     -1.390793739      0.915270883
-1.321934842      5.205455855     -0.894377747
 2.134492965     -2.209612859      8.878750445
frac
Al      0.346586709      0.681923927      0.948865824
Al      0.492374957      0.492373963      0.745327534
Al      0.969274906      0.020891062      0.260224996
Al      0.968368587      0.019984742      0.757110681
Al      0.063510935      0.434682554      0.591856440
Al      0.554578089      0.925750702      0.094971749
Al      0.307335722      0.642670952      0.451979145
Al      0.149656006      0.837190766      0.420842300
Mg      0.066238837      0.425923453      0.089686872
Mg      0.632236352      0.353156532      0.923914212
Mg      0.826457041      0.689583917      0.592559037
Mg      0.636101129      0.357023296      0.427029521
O       0.305575753      0.155460624      0.585620525
O       0.563337189      0.923020812      0.586573552
O       0.796081426      0.152399809      0.212305341
O       0.343327139      0.678228091      0.215060075
O       0.839567867      0.198156024      0.462424676
O       0.152070870      0.839604637      0.917727985
O       0.300047402      0.162781738      0.829689780
O       0.836287428      0.680779102      0.822609159
O       0.826472942      0.689206284      0.332801113
O       0.308471602      0.152968246      0.325729436
O       0.496885685      0.496885685      0.248442843
O       0.791101637      0.149690788      0.959310361
O       0.311032551      0.645934497      0.711945760
O       0.836867790      0.193179217      0.709190032
O       0.833801012      0.683689859      0.088731858
O       0.299677719      0.162802607      0.095676332
species
Mg  2.0
Al  3.0
O  -2.0
lennard 12 6
Mg O   1.50 0.00 0.00 6.0
Al O   1.50 0.00 0.00 6.0
O O    1.50 0.00 0.00 6.0
Mg Mg  1.50 0.00 0.00 6.0
Mg Al  1.50 0.00 0.00 6.0
Al Al  1.50 0.00 0.00 6.0
buck
Mg O 1428.5 0.2945 0.0 0.0 7.0
Al O 1114.9 0.3118 0.0 0.0 7.0
O O  2023.8 0.2674 0.0 0.0 7.0
maxcyc 850
switch rfo 0.010
