opti conjugate nosymmetry conp 
pressure 100 GPa
vectors
 4.655764846      3.786056997      2.231310766
 3.572008129     11.832472040     -3.710559183
 2.902851359     -9.037734624     13.322674624
frac
Al     -0.000000000     -0.000000000     -0.000000000
Al      0.385552574      0.004748050      0.194441426
Al      0.191519371      0.265787698      0.157348007
Al      0.188730943      0.259632303      0.348292313
Al      0.380532633      0.144178289      0.114491582
Al      0.190472359      0.385148599      0.098550043
Al      0.191332059      0.384441065      0.289281934
Al      0.378593478      0.128167619      0.313380201
Mg      0.383423405      0.269704627      0.058031726
Mg      0.191553357      0.129560288      0.024469414
Mg      0.192421554      0.139295066      0.216979023
Mg      0.384366913      0.265517738      0.253608219
O       0.048875875      0.128885582      0.046157352
O       0.253996359      0.232890823      0.088574658
O       0.308048590      0.029916502      0.069720333
O       0.077933835      0.328720799      0.131495580
O       0.248382815      0.243889662      0.283473355
O       0.051737682      0.127293243      0.242999837
O       0.088268008      0.340246040      0.326941149
O       0.305169790      0.027803940      0.259099721
O       0.289295452      0.046066593      0.352712086
O       0.126639391      0.329712197      0.030618243
O       0.326519795      0.245259545      0.367716295
O       0.128875154      0.135596345      0.333173399
O       0.118798195      0.324922822      0.223330226
O       0.265094839      0.017543146      0.163035703
O       0.126166286      0.132910263      0.137784603
O       0.317465517      0.224157871      0.176674665
species
Mg  2.0
Al  3.0
O  -2.0
lennard 12 6
Mg O   1.50 0.00 0.00 6.0
Al O   1.50 0.00 0.00 6.0
O O    1.50 0.00 0.00 6.0
Mg Mg  1.50 0.00 0.00 6.0
Mg Al  1.50 0.00 0.00 6.0
Al Al  1.50 0.00 0.00 6.0
buck
Mg O 1428.5 0.2945 0.0 0.0 7.0
Al O 1114.9 0.3118 0.0 0.0 7.0
O O  2023.8 0.2674 0.0 0.0 7.0
maxcyc 850
switch rfo 0.010
