opti conjugate nosymmetry conp 
pressure 100 GPa
vectors
 4.639472000      0.022395000     -0.005160000
 0.065438000      4.986575000     -1.043223000
-0.053862000     -1.998030000      9.416876000
frac
Al     -0.000000000     -0.000000000     -0.000000000
Al      0.201792000      0.851148000      0.340478000
Al      0.495896000      0.688197000      0.407417000
Al      0.657666000      0.603018000      0.229344000
Al      0.985303000      0.373317000      0.296450000
Al      0.327904000      0.853715000      0.079279000
Al      0.495411000      0.995423000      0.749030000
Al      0.980282000      0.331861000      0.811427000
Mg      0.992788000      0.698339000      0.150260000
Mg      0.495984000      0.335467000      0.063358000
Mg      0.498232000      0.360673000      0.561818000
Mg      0.995231000      0.687498000      0.656661000
O       0.126553000      0.333720000      0.119514000
O       0.488676000      0.672259000      0.901824000
O       0.797622000      0.077462000      0.180525000
O       0.998301000      0.012294000      0.503462000
O       0.643131000      0.631497000      0.733990000
O       0.133963000      0.329597000      0.629193000
O       0.228550000      0.880990000      0.846540000
O       0.790168000      0.071992000      0.670880000
O       0.749065000      0.119279000      0.913268000
O       0.493185000      0.997255000      0.255173000
O       0.845449000      0.635044000      0.952118000
O       0.333693000      0.351096000      0.862677000
O       0.307601000      0.841314000      0.578263000
O       0.686403000      0.045424000      0.422144000
O       0.326679000      0.344141000      0.356762000
O       0.822005000      0.580406000      0.457459000
species
Mg  2.0
Al  3.0
O  -2.0
lennard 12 6
Mg O   1.50 0.00 0.00 6.0
Al O   1.50 0.00 0.00 6.0
O O    1.50 0.00 0.00 6.0
Mg Mg  1.50 0.00 0.00 6.0
Mg Al  1.50 0.00 0.00 6.0
Al Al  1.50 0.00 0.00 6.0
buck
Mg O 1428.5 0.2945 0.0 0.0 7.0
Al O 1114.9 0.3118 0.0 0.0 7.0
O O  2023.8 0.2674 0.0 0.0 7.0
maxcyc 850
switch rfo 0.010
