opti conjugate nosymmetry conp 
pressure 100 GPa
vectors
 6.064216913     -0.561054444     -0.641223860
-0.531800813      7.970502417     -2.408939405
-1.398085015     -2.314592886      5.242120429
frac
Al      0.223709381      0.223709381      0.223709381
Al      0.885205740      1.291774808      0.422026981
Al      0.950433184      0.392154029      0.952886291
Al      0.150050900      1.261536016      0.229647144
Al      0.913914377      1.377829372      0.183763723
Al      0.181080577      0.262391355      0.971905459
Al      1.233748812      0.867103451      0.004602611
Al      0.982583154      0.273600353      0.189126039
Mg      0.421964742      0.775764688      0.702725556
Mg      1.238923714      0.805000075      0.678979300
Mg      0.183775048      1.303902204      0.519273845
Mg      0.393458001      0.734058836      0.459027817
O       1.052018526      1.021550513      0.287690537
O       1.295868886      0.624895580      0.301773132
O       0.633397963      0.545162016      0.526548157
O       1.430703237      0.490493862      0.924585999
O       0.524154253      0.072527562      0.968318398
O       1.445403662      0.142547369      0.480071193
O       0.372277184      1.026156161      0.315805632
O       0.715047257      1.383776942      0.509738515
O       0.712568344      0.616312742      0.151798951
O       0.423280859      0.261123815      0.441942596
O       0.382853172      1.089689504      0.934972235
O       1.379452127      0.894665989      0.183121604
O       1.404144105      1.318648169      0.496065784
O       1.265491954      0.278322887      0.385750357
O       1.217817279      1.345459291      0.893764290
O       0.714774015      0.084879623      0.502038340
species
Mg  2.0
Al  3.0
O  -2.0
lennard 12 6
Mg O   1.50 0.00 0.00 6.0
Al O   1.50 0.00 0.00 6.0
O O    1.50 0.00 0.00 6.0
Mg Mg  1.50 0.00 0.00 6.0
Mg Al  1.50 0.00 0.00 6.0
Al Al  1.50 0.00 0.00 6.0
buck
Mg O 1428.5 0.2945 0.0 0.0 7.0
Al O 1114.9 0.3118 0.0 0.0 7.0
O O  2023.8 0.2674 0.0 0.0 7.0
maxcyc 850
switch rfo 0.010
