opti conjugate nosymmetry conp 
pressure 100 GPa
vectors
 6.473572439      0.000000000     -2.983111855
 0.000000000      6.445582056      0.000000000
 0.000000000      0.000000000      4.989136146
frac
Al      1.095757779      0.962942395      0.054942516
Al      0.078209579      0.375958716      0.119024842
Al      0.229150010      0.159720501      0.158291285
Al      0.944817348      0.746704180      0.015676073
Al      0.635188797      0.363159446      0.006342567
Al      0.538778561      0.950143125      0.167624791
Al      0.040481693      0.982201309      0.284081467
Al      1.133485665      0.395217630      0.889885891
Mg      0.277214320      0.301111395      0.375440112
Mg      0.896753039      0.888095074      0.798527246
Mg      0.770705111      0.072752330      0.052821561
Mg      0.403262247      0.659736009      0.121145797
O       0.716803099      0.207179028      0.917484513
O       0.457164259      0.794162707      0.256482845
O       0.708949125      0.006387805      0.842357099
O       0.465018233      0.593371484      0.331610259
O       0.492462356      0.928728705      0.522919266
O       0.681505002      0.341745026      0.651048092
O       0.872201471      0.511657756      0.251809150
O       0.301765887      1.098641435      0.922158208
O       0.978243604      0.510422737      0.785613782
O       0.195723754      1.097406416      0.388353576
O       0.041676418      1.135748900      0.546939174
O       1.132290940      0.548765221      0.627028184
O       0.568196907      0.169422475      0.048666867
O       0.605770451      0.756406154      0.125300491
O       0.961766935      0.099615471      0.669455483
O       0.212200423      0.686599150      0.504511875
species
Mg  2.0
Al  3.0
O  -2.0
lennard 12 6
Mg O   1.50 0.00 0.00 6.0
Al O   1.50 0.00 0.00 6.0
O O    1.50 0.00 0.00 6.0
Mg Mg  1.50 0.00 0.00 6.0
Mg Al  1.50 0.00 0.00 6.0
Al Al  1.50 0.00 0.00 6.0
buck
Mg O 1428.5 0.2945 0.0 0.0 7.0
Al O 1114.9 0.3118 0.0 0.0 7.0
O O  2023.8 0.2674 0.0 0.0 7.0
maxcyc 850
switch rfo 0.010
