opti conjugate nosymmetry conp 
pressure 100 GPa
vectors
 5.926666682      0.000000000      0.000000000
 0.000000000      5.926666682      0.000000000
 0.000000000      0.000000000      5.926666682
frac
Al      0.825266629      0.825266629      0.825266629
Al      0.825266629      0.275088876      0.275088876
Al      0.275088876      0.825266629      0.275088876
Al      0.275088876      0.275088876      0.825266629
Al     -0.000000000     -0.000000000     -0.000000000
Al     -0.000000000      0.550177753      0.550177753
Al      0.550177753      0.000000000      0.550177753
Al      0.550177753      0.550177753      0.000000000
Mg      0.275088876      0.275088876      0.275088876
Mg      0.275088876      0.825266629      0.825266629
Mg      0.825266629      0.275088876      0.825266629
Mg      0.825266629      0.825266629      0.275088876
O       0.680039762      0.680039762      0.680039762
O       0.420315743      0.420315743      0.680039762
O       0.420315743      0.680039762      0.420315743
O       0.680039762      0.420315743      0.420315743
O       0.680039762      0.129862009      0.129862009
O       0.420315743      0.970493496      0.129862009
O       0.420315743      0.129862009      0.970493496
O       0.680039762      0.970493496      0.970493496
O       0.129862009      0.680039762      0.129862009
O       0.970493496      0.420315743      0.129862009
O       0.970493496      0.680039762      0.970493496
O       0.129862009      0.420315743      0.970493496
O       0.129862009      0.129862009      0.680039762
O       0.970493496      0.970493496      0.680039762
O       0.970493496      0.129862009      0.420315743
O       0.129862009      0.970493496      0.420315743
species
Mg  2.0
Al  3.0
O  -2.0
lennard 12 6
Mg O   1.50 0.00 0.00 6.0
Al O   1.50 0.00 0.00 6.0
O O    1.50 0.00 0.00 6.0
Mg Mg  1.50 0.00 0.00 6.0
Mg Al  1.50 0.00 0.00 6.0
Al Al  1.50 0.00 0.00 6.0
buck
Mg O 1428.5 0.2945 0.0 0.0 7.0
Al O 1114.9 0.3118 0.0 0.0 7.0
O O  2023.8 0.2674 0.0 0.0 7.0
maxcyc 850
switch rfo 0.010
