opti conjugate nosymmetry conp 
pressure 100 GPa
vectors
 3.783118013      0.000000000      0.000000000
 0.000000000      3.783118013      0.000000000
 0.000000000      0.000000000     14.545603020
frac
Al     -0.000000000     -0.000000000      0.564730929
Al      0.584621189      0.584621189      0.149352118
Al     -0.000000000     -0.000000000      0.663791552
Al      0.584621189      0.584621189      0.079170363
Al     -0.000000000     -0.000000000      0.797120560
Al      0.584621189      0.584621189      0.212499371
Al     -0.000000000     -0.000000000      0.221152514
Al      0.584621189      0.584621189      0.805773703
Mg     -0.000000000      0.584621189      0.663311121
Mg      0.584621189     -0.000000000      0.663311121
Mg      0.584621189     -0.000000000      0.078689932
Mg     -0.000000000      0.584621189      0.078689932
O      -0.000000000     -0.000000000      0.101351197
O       0.584621189      0.584621189      0.516730008
O      -0.000000000     -0.000000000      0.873044896
O       0.584621189      0.584621189      0.288423707
O       0.373565690      0.373565690      0.526762001
O       0.795676687      0.795676687      0.526762001
O       0.795676687      0.373565690      0.526762001
O       0.373565690      0.795676687      0.526762001
O       0.958186879      0.958186879      0.111383190
O       0.211055498      0.211055498      0.111383190
O       0.211055498      0.958186879      0.111383190
O       0.958186879      0.211055498      0.111383190
O      -0.000000000      0.584621189      0.017131048
O       0.584621189     -0.000000000      0.017131048
O       0.584621189     -0.000000000      0.432509859
O      -0.000000000      0.584621189      0.432509859
species
Mg  2.0
Al  3.0
O  -2.0
lennard 12 6
Mg O   1.50 0.00 0.00 6.0
Al O   1.50 0.00 0.00 6.0
O O    1.50 0.00 0.00 6.0
Mg Mg  1.50 0.00 0.00 6.0
Mg Al  1.50 0.00 0.00 6.0
Al Al  1.50 0.00 0.00 6.0
buck
Mg O 1428.5 0.2945 0.0 0.0 7.0
Al O 1114.9 0.3118 0.0 0.0 7.0
O O  2023.8 0.2674 0.0 0.0 7.0
maxcyc 850
switch rfo 0.010
