opti conjugate nosymmetry conp 
pressure 100 GPa
vectors
 7.270058461      0.000000000      0.000000000
 0.000000000      5.506709509      0.000000000
 0.000000000      0.000000000      5.199977192
frac
Al     -0.000000000     -0.000000000      0.026498139
Al      0.577740882      0.577740882      0.026498139
Al      0.428524973      1.086020684      0.131269783
Al      0.726956792      0.069461081      0.131269783
Al      1.006265856      0.647201963      0.131269783
Al      0.149215909      0.508279801      0.131269783
Al     -0.000000000     -0.000000000      0.270723175
Al      0.577740882      0.577740882      0.270723175
Mg      0.379417639      0.475540587      0.927915831
Mg      0.776064126      0.679941177      0.927915831
Mg      0.957158521      0.102200295      0.927915831
Mg      0.198323243      1.053281470      0.927915831
O       1.111933295      0.365153658      0.289753598
O       0.043548470      0.790328107      0.289753598
O       0.534192412      0.212587225      0.289753598
O       0.621289352      0.942894540      0.289753598
O      -0.000000000      0.577740882      0.087246837
O       0.577740882     -0.000000000      0.087246837
O       0.572371411      0.304580844      0.146055024
O       0.583110354      0.850900920      0.146055024
O       1.150112294      0.273160038      0.146055024
O       0.005369471      0.882321727      0.146055024
O       0.402269589      0.537156840      0.443312974
O       0.753212176      0.618324925      0.443312974
O       0.980010472      0.040584043      0.443312974
O       0.175471293      1.114897722      0.443312974
O      -0.000000000      0.577740882      0.325747107
O       0.577740882     -0.000000000      0.325747107
species
Mg  2.0
Al  3.0
O  -2.0
lennard 12 6
Mg O   1.50 0.00 0.00 6.0
Al O   1.50 0.00 0.00 6.0
O O    1.50 0.00 0.00 6.0
Mg Mg  1.50 0.00 0.00 6.0
Mg Al  1.50 0.00 0.00 6.0
Al Al  1.50 0.00 0.00 6.0
buck
Mg O 1428.5 0.2945 0.0 0.0 7.0
Al O 1114.9 0.3118 0.0 0.0 7.0
O O  2023.8 0.2674 0.0 0.0 7.0
maxcyc 850
switch rfo 0.010
