opti conjugate nosymmetry conp 
pressure 100 GPa
vectors
 5.926666682      0.000000000      0.000000000
 0.000000000      5.926666682      0.000000000
 0.000000000      0.000000000      5.926666682
frac
Al     -0.000000000      0.582816759      0.582816759
Al      0.582816759     -0.000000000      0.582816759
Al      0.582816759      0.582816759      1.000000000
Al      0.753630890      0.753630890      0.753630890
Al      0.412002628      0.412002628      0.753630890
Al      0.412002628      0.753630890      0.412002628
Al      0.753630890      0.412002628      0.412002628
Al      0.582816759      0.582816759      0.582816759
Mg      0.229562141      0.229562141      0.229562141
Mg      0.936071377      0.936071377      0.229562141
Mg      0.936071377      0.229562141      0.936071377
Mg      0.229562141      0.936071377      0.936071377
O       1.091635980      0.700978831      0.410289274
O       0.073997538      0.464654688      0.410289274
O       0.073997538      0.700978831      0.755344244
O       1.091635980      0.464654688      0.755344244
O       0.410289274      1.091635980      0.700978831
O       0.410289274      0.073997538      0.464654688
O       0.755344244      0.073997538      0.700978831
O       0.755344244      1.091635980      0.464654688
O       0.700978831      0.410289274      0.091635980
O       0.464654688      0.410289274      0.073997538
O       0.700978831      0.755344244      0.073997538
O       0.464654688      0.755344244      0.091635980
O       0.440796857      0.440796857      0.440796857
O       0.724836662      0.724836662      0.440796857
O       0.724836662      0.440796857      0.724836662
O       0.440796857      0.724836662      0.724836662
species
Mg  2.0
Al  3.0
O  -2.0
lennard 12 6
Mg O   1.50 0.00 0.00 6.0
Al O   1.50 0.00 0.00 6.0
O O    1.50 0.00 0.00 6.0
Mg Mg  1.50 0.00 0.00 6.0
Mg Al  1.50 0.00 0.00 6.0
Al Al  1.50 0.00 0.00 6.0
buck
Mg O 1428.5 0.2945 0.0 0.0 7.0
Al O 1114.9 0.3118 0.0 0.0 7.0
O O  2023.8 0.2674 0.0 0.0 7.0
maxcyc 850
switch rfo 0.010
