opti conjugate nosymmetry conp 
pressure 100 GPa
vectors
 5.926666682      0.000000000      0.000000000
 0.000000000      5.926666682      0.000000000
 0.000000000      0.000000000      5.926666682
frac
Al      1.033991681      1.033991681      0.033991681
Al      0.766883647      0.766883647      0.033991681
Al      0.766883647      1.033991681      0.766883647
Al      1.033991681      0.766883647      0.766883647
Al      0.166591871      0.166591871      0.166591871
Al      0.433699905      0.433699905      0.166591871
Al      0.433699905      0.166591871      0.433699905
Al      0.166591871      0.433699905      0.433699905
Mg      0.600291776      0.600291776      0.600291776
Mg     -0.000000000     -0.000000000      0.600291776
Mg     -0.000000000      0.600291776      1.000000000
Mg      0.600291776     -0.000000000      1.000000000
O       1.122535283      0.900437664      0.300145888
O       0.678340045      0.900437664      0.300145888
O       0.300145888      1.122535283      0.900437664
O       0.300145888      0.678340045      0.900437664
O       0.900437664      0.300145888      0.122535283
O       0.900437664      0.300145888      0.678340045
O       0.078048269      0.300145888      0.900437664
O       0.522243507      0.300145888      0.900437664
O       0.900437664      0.078048269      0.300145888
O       0.900437664      0.522243507      0.300145888
O       0.300145888      0.900437664      0.078048269
O       0.300145888      0.900437664      0.522243507
O      -0.000000000     -0.000000000     -0.000000000
O       0.600291776      0.600291776      1.000000000
O       0.600291776     -0.000000000      0.600291776
O      -0.000000000      0.600291776      0.600291776
species
Mg  2.0
Al  3.0
O  -2.0
lennard 12 6
Mg O   1.50 0.00 0.00 6.0
Al O   1.50 0.00 0.00 6.0
O O    1.50 0.00 0.00 6.0
Mg Mg  1.50 0.00 0.00 6.0
Mg Al  1.50 0.00 0.00 6.0
Al Al  1.50 0.00 0.00 6.0
buck
Mg O 1428.5 0.2945 0.0 0.0 7.0
Al O 1114.9 0.3118 0.0 0.0 7.0
O O  2023.8 0.2674 0.0 0.0 7.0
maxcyc 850
switch rfo 0.010
