opti conjugate nosymmetry conp 
pressure 100 GPa
vectors
 6.037411652      0.000000000     -4.244854281
 0.000000000      6.023801912      0.000000000
 0.000000000      0.000000000      5.724137250
frac
Al      0.169174602      0.080542927      0.207202604
Al      0.169174602      1.149433102      0.822190619
Al      0.784162616      0.695530942      0.207202604
Al      0.784162616      0.534445087      0.822190619
Al      0.836846291      0.934726656      0.047488601
Al      0.836846291      0.295249373      0.662476616
Al      0.221858276      0.319738642      0.047488601
Al      0.221858276      0.910237388      0.662476616
Mg      0.000837594      0.269109061      0.485836960
Mg      0.000837594      0.960866968      0.100824975
Mg      0.615825609      0.884097076      0.485836960
Mg      0.615825609      0.345878954      0.100824975
O       0.858880072      1.203830162      0.238215229
O       0.858880072      0.026145867      0.853203244
O       0.243892057      0.588842148      0.238215229
O       0.243892057      0.641133882      0.853203244
O       0.838159881      1.047085739      0.883200783
O       0.838159881      0.182890290      0.268212768
O       0.223171866      0.432097724      0.883200783
O       0.223171866      0.797878305      0.268212768
O       0.500215044      0.086194838      0.358728414
O       0.500215044      1.143781192      0.973716429
O       1.115203059      0.701182852      0.358728414
O       1.115203059      0.528793177      0.973716429
O       0.897550658      1.114894158      0.589230352
O       0.897550658      0.115081871      0.204218366
O       0.282562643      0.499906144      0.589230352
O       0.282562643      0.730069886      0.204218366
species
Mg  2.0
Al  3.0
O  -2.0
lennard 12 6
Mg O   1.50 0.00 0.00 6.0
Al O   1.50 0.00 0.00 6.0
O O    1.50 0.00 0.00 6.0
Mg Mg  1.50 0.00 0.00 6.0
Mg Al  1.50 0.00 0.00 6.0
Al Al  1.50 0.00 0.00 6.0
buck
Mg O 1428.5 0.2945 0.0 0.0 7.0
Al O 1114.9 0.3118 0.0 0.0 7.0
O O  2023.8 0.2674 0.0 0.0 7.0
maxcyc 850
switch rfo 0.010
