opti conjugate nosymmetry conp 
pressure 100 GPa
vectors
 4.818030491      0.000000000      0.000000000
 0.000000000      4.818030491      0.000000000
 0.000000000      0.000000000      8.967934362
frac
Al      0.286820270      0.286820270      0.286820270
Al      0.860460810      0.860460810      0.286820270
Al      0.860460810      0.286820270      0.286820270
Al      0.286820270      0.860460810      0.286820270
Al      0.860460810      0.860460810      0.860460810
Al      0.286820270      0.286820270      0.860460810
Al      0.286820270      0.860460810      0.860460810
Al      0.860460810      0.286820270      0.860460810
Mg     -0.000000000      0.573640540      0.286820270
Mg      0.573640540      1.147281081      0.286820270
Mg      0.573640540      1.147281081      0.860460810
Mg     -0.000000000      0.573640540      0.860460810
O       0.155177995      0.140092853      0.446493111
O       0.992103085      1.007188228      0.446493111
O       1.007188228      0.155177995      0.446493111
O       0.140092853      0.992103085      0.446493111
O       0.992103085      1.007188228      0.700787970
O       0.155177995      0.140092853      0.700787970
O       0.140092853      0.992103085      0.700787970
O       1.007188228      0.155177995      0.700787970
O       0.728818536      0.713733393      0.020133651
O       0.418462545      0.433547687      0.020133651
O       0.433547687      0.728818536      0.020133651
O       0.713733393      0.418462545      0.020133651
O       0.418462545      0.433547687      0.127147430
O       0.728818536      0.713733393      0.127147430
O       0.713733393      0.418462545      0.127147430
O       0.433547687      0.728818536      0.127147430
species
Mg  2.0
Al  3.0
O  -2.0
lennard 12 6
Mg O   1.50 0.00 0.00 6.0
Al O   1.50 0.00 0.00 6.0
O O    1.50 0.00 0.00 6.0
Mg Mg  1.50 0.00 0.00 6.0
Mg Al  1.50 0.00 0.00 6.0
Al Al  1.50 0.00 0.00 6.0
buck
Mg O 1428.5 0.2945 0.0 0.0 7.0
Al O 1114.9 0.3118 0.0 0.0 7.0
O O  2023.8 0.2674 0.0 0.0 7.0
maxcyc 850
switch rfo 0.010
