opti conjugate nosymmetry conp 
pressure 100 GPa
vectors
 4.603509250      0.000000000      0.000000000
 0.000000000      7.822257394      0.000000000
 0.000000000      0.000000000      5.781098731
frac
Al      0.069455155      0.394298317      0.441273384
Al      1.311119863      0.986276701      0.131560893
Al      0.759742664      0.986276701      0.441273384
Al      0.620832354      0.394298317      0.131560893
Al      0.475521371      1.179308420      0.347767086
Al      0.905053647      0.201266599      0.038054595
Al      1.165808881      0.201266599      0.347767086
Al      0.214766138      1.179308420      0.038054595
Mg      1.135233400      0.623828953      0.701696325
Mg      0.245341619      0.756746065      0.011408816
Mg      0.444945890      0.756746065      0.701696325
Mg      0.935629128      0.623828953      0.011408816
O       0.198306810      0.474006959      0.171540709
O       1.182268208      0.906568059      0.861828218
O       0.888594320      0.906568059      0.171540709
O       0.491980699      0.474006959      0.861828218
O       0.719986111      0.519403666      0.264824642
O       0.660588907      0.861171352      0.955112151
O       0.029698602      0.861171352      0.264824642
O       1.350876417      0.519403666      0.955112151
O       0.180239435      0.624675362      0.399400873
O       1.200335584      0.755899657      0.089688382
O       0.870526944      0.755899657      0.399400873
O       0.510048074      0.624675362      0.089688382
O       0.300091498      0.393368082      0.561625615
O       1.080483520      0.987206936      0.251913124
O       0.990379008      0.987206936      0.561625615
O       0.390196011      0.393368082      0.251913124
species
Mg  2.0
Al  3.0
O  -2.0
lennard 12 6
Mg O   1.50 0.00 0.00 6.0
Al O   1.50 0.00 0.00 6.0
O O    1.50 0.00 0.00 6.0
Mg Mg  1.50 0.00 0.00 6.0
Mg Al  1.50 0.00 0.00 6.0
Al Al  1.50 0.00 0.00 6.0
buck
Mg O 1428.5 0.2945 0.0 0.0 7.0
Al O 1114.9 0.3118 0.0 0.0 7.0
O O  2023.8 0.2674 0.0 0.0 7.0
maxcyc 850
switch rfo 0.010
