opti conjugate nosymmetry conp 
pressure 100 GPa
vectors
 3.593461748      0.000000000      0.000000000
 0.000000000     13.291596286      0.000000000
 0.000000000      0.000000000      4.358543062
frac
Al     -0.000000000      0.189567652      0.078192168
Al     -0.000000000      1.004593080      0.078192168
Al     -0.000000000      0.786648017      0.481111802
Al     -0.000000000      0.407512714      0.481111802
Al     -0.000000000     -0.000000000      0.454808827
Al     -0.000000000      0.597080366      0.051889192
Al      0.597080366      0.000000000      0.215617681
Al      0.597080366      0.597080366      0.812698046
Mg      0.597080366      0.000000000      0.937125341
Mg      0.597080366      0.597080366      0.340044975
Mg      0.597080366      0.000000000      0.572190239
Mg      0.597080366      0.597080366      0.169270604
O       0.318162292      0.032999876      0.079166512
O       0.875998440      1.161160855      0.079166512
O       0.318162292      1.161160855      0.079166512
O       0.875998440      0.032999876      0.079166512
O       0.318162292      0.630080242      0.676246878
O       0.875998440      0.564080489      0.676246878
O       0.318162292      0.564080489      0.676246878
O       0.875998440      0.630080242      0.676246878
O       0.412417052      0.871931054      0.119560642
O       0.781743679      0.322229677      0.119560642
O       0.412417052      0.322229677      0.119560642
O       0.781743679      0.871931054      0.119560642
O       0.412417052      0.274850688      0.522480276
O       0.781743679      0.919310043      0.522480276
O       0.412417052      0.919310043      0.522480276
O       0.781743679      0.274850688      0.522480276
species
Mg  2.0
Al  3.0
O  -2.0
lennard 12 6
Mg O   1.50 0.00 0.00 6.0
Al O   1.50 0.00 0.00 6.0
O O    1.50 0.00 0.00 6.0
Mg Mg  1.50 0.00 0.00 6.0
Mg Al  1.50 0.00 0.00 6.0
Al Al  1.50 0.00 0.00 6.0
buck
Mg O 1428.5 0.2945 0.0 0.0 7.0
Al O 1114.9 0.3118 0.0 0.0 7.0
O O  2023.8 0.2674 0.0 0.0 7.0
maxcyc 850
switch rfo 0.010
