opti conj conp
switch_minimiser bfgs gnorm 0.5
vectors
 3.802459028      0.826172877     -3.500451158
 0.282322671      7.201424683     -1.273506377
-0.231593716     -0.953545228      5.277902936
frac
Ti      0.089673014      0.681432229      0.721910177
Ti      0.089669979      0.175620243      0.721905119
Ti      0.678676044      0.624049097      0.638723590
Ti      0.991186643      0.096963631      0.829613136
O       0.637910317      0.154401515      0.173652642
O       0.300144586      0.576204536      0.511447710
O       0.300143574      0.070397607      0.511438605
O       0.637922456      0.660214513      0.173675909
O       0.047225441      0.449745975      0.764337517
O       0.047224430      0.955556950      0.764337517
O       0.786322266      0.942058148      0.200386684
O       0.736813900      0.194353309      0.099518076
species
Ti  2.196
O  -1.098
buck
Ti Ti 31120.1 0.1540 5.25  15
O  O  11782.7 0.2340 30.22 15
Ti O  16957.5 0.1940 12.59 15
lennard 12 6
Ti Ti   1   0 15
O  O    1   0 15
Ti O    1   0 15
