opti conj conp
switch_minimiser bfgs gnorm 0.5
vectors
 5.277842265      0.296064383     -1.021722992
-0.487325055      5.856892385     -0.322766348
-1.374744009     -1.069012659      4.652025572
frac
Ti      0.166984442      0.462370060      0.120718148
Ti      0.410660753      0.241285947      0.847385328
Ti      0.664478913      0.749409440      0.229191782
Ti      0.873760388      0.704379098      0.847391812
O       0.126173449      0.750837112      0.409189043
O       0.015878947      0.750845759      0.779286727
O       0.366370022      0.270448769      0.039097123
O       0.256073599      0.270457416      0.409195768
O       0.619951491      0.497311212      0.692285860
O       0.664485396      0.960407143      0.692303457
O       0.873763167      0.079248403      0.384295881
O       0.410661680      0.542343407      0.384290324
species
Ti  2.196
O  -1.098
buck
Ti Ti 31120.1 0.1540 5.25  15
O  O  11782.7 0.2340 30.22 15
Ti O  16957.5 0.1940 12.59 15
lennard 12 6
Ti Ti   1   0 15
O  O    1   0 15
Ti O    1   0 15
