opti conj conp
switch_minimiser bfgs gnorm 0.5
vectors
 4.887141503      0.665916736     -0.252069113
-0.663428755      5.337548676     -0.226056520
 0.240940668      0.248387207      5.029603012
frac
Ti      0.486292450      1.008284005      0.402194379
Ti      0.964583427      0.529992071      0.402195336
Ti      0.413915447      0.589560771      0.911820633
Ti      0.671559653      0.505438547      0.549898271
O       0.330892531      0.374594065      0.246797330
O       0.330890617      0.852885042      0.020896399
O       0.809181595      0.685393903      0.020896399
O       0.809184465      0.207101012      0.246793503
O       0.145777489      0.808313495      0.747974529
O       0.718576063      0.016214266      0.549895336
O       0.192822275      0.282545029      0.747964744
O       0.939674128      0.063795241      0.911814762
species
Ti  2.196
O  -1.098
buck
Ti Ti 31120.1 0.1540 5.25  15
O  O  11782.7 0.2340 30.22 15
Ti O  16957.5 0.1940 12.59 15
lennard 12 6
Ti Ti   1   0 15
O  O    1   0 15
Ti O    1   0 15
