opti conj conp
switch_minimiser bfgs gnorm 0.5
vectors
 7.041748841      0.027521807      1.785557033
-0.033214441      6.565663126      0.029752774
 0.599074112     -0.010796269      3.050624973
frac
Ti      0.119717799      0.983979444      0.452384412
Ti      0.635847916      0.983981380      0.452384412
Ti      0.963573014      0.637466319      0.780110478
Ti      0.289332855      0.827835627      0.970478819
O       0.635845981      0.690479838      0.452387315
O       0.929347522      0.500109562      0.642755656
O       0.635846948      0.277482922      0.452383444
O       0.310085172      0.500109562      0.229759707
O       0.445477640      0.983980412      0.126623603
O       0.963573014      0.018204936      0.780110478
O       0.963572046      0.343964777      0.780112413
O       0.479701196      0.343966713      0.780111445
species
Ti  2.196
O  -1.098
buck
Ti Ti 31120.1 0.1540 5.25  15
O  O  11782.7 0.2340 30.22 15
Ti O  16957.5 0.1940 12.59 15
lennard 12 6
Ti Ti   1   0 15
O  O    1   0 15
Ti O    1   0 15
