opti conj conp
switch_minimiser bfgs gnorm 0.5
vectors
 4.745946732      0.595852911     -0.241480620
-1.532176448      5.607318327     -1.275947058
 0.170233404      0.409635830      4.769907137
frac
Ti      0.380612812      0.426456774      0.794124627
Ti      0.380614819      0.928184550      0.292395848
Ti      0.820809046      0.630916275      0.224032149
Ti      0.669875697      0.953490160      0.553899054
O       0.041901734      0.765168855      0.455412545
O       0.217600128      0.263443087      0.129384167
O       0.041897720      0.263441080      0.631112946
O       0.217598121      0.765170862      0.957140321
O       0.595023794      0.120984184      0.979737130
O       0.969661207      0.398723306      0.298909550
O       0.479764165      0.528407855      0.918524799
O       1.021768591      0.120953586      0.405073412
species
Ti  2.196
O  -1.098
buck
Ti Ti 31120.1 0.1540 5.25  15
O  O  11782.7 0.2340 30.22 15
Ti O  16957.5 0.1940 12.59 15
lennard 12 6
Ti Ti   1   0 15
O  O    1   0 15
Ti O    1   0 15
