opti conj conp
switch_minimiser bfgs gnorm 0.5
vectors
 5.164055382      1.111628035     -4.903067500
 0.099460762      7.802871978     -1.047110878
-2.250483182     -1.833824588      5.637235839
frac
Ti      0.570021206      0.346146682      0.666491443
Ti      0.762995644      0.056674990      0.473510830
Ti      0.335669480      0.733173758      0.370069379
Ti      0.721624532      0.733180706      0.072741249
O       0.409419647      0.040484305      0.055173637
O       0.151691732      0.362335823      0.312923937
O       0.730608871      0.265843200      0.505888340
O       0.602401032      0.136980787      0.634108529
O       0.424290999      0.733181477      0.072742021
O       0.071121795      0.501414236      0.612879478
O       0.038334403      0.733173758      0.547302380
O       0.457076846      0.501418095      0.612885654
species
Ti  2.196
O  -1.098
buck
Ti Ti 31120.1 0.1540 5.25  15
O  O  11782.7 0.2340 30.22 15
Ti O  16957.5 0.1940 12.59 15
lennard 12 6
Ti Ti   1   0 15
O  O    1   0 15
Ti O    1   0 15
