opti conj conp
switch_minimiser bfgs gnorm 0.5
vectors
 3.770616298      0.958105988     -3.566202492
 0.398713546      7.205562962     -1.177003462
-0.230750992     -0.876809277      5.313643138
frac
Ti      0.965685933      0.042426461      0.587288961
Ti      0.859849711      0.681969667      0.832158084
Ti      0.593305881      0.464512092      0.669269647
Ti      0.153724880      0.464504311      0.995028040
O       0.503512858      0.021262981      0.040463983
O       0.923351910      0.315838445      0.629610877
O       0.755766407      0.147397323      0.797212523
O       0.640067479      0.729259419      0.182939693
O       0.640074287      0.950843991      0.669288127
O       0.106977872      0.729269146      0.508699059
O       0.106986626      0.950834264      0.995030958
O       0.373514894      0.511803789      0.345820349
species
Ti  2.196
O  -1.098
buck
Ti Ti 31120.1 0.1540 5.25  15
O  O  11782.7 0.2340 30.22 15
Ti O  16957.5 0.1940 12.59 15
lennard 12 6
Ti Ti   1   0 15
O  O    1   0 15
Ti O    1   0 15
