opti conj conp
switch_minimiser bfgs gnorm 0.5
vectors
 4.577320398      1.068843739     -3.693720227
-1.052841984      6.502119663     -3.169228732
 0.306968475     -2.198690063      5.443547716
frac
Ti      0.212757084      0.948027488      0.998321993
Ti      1.155473941      0.162443724      0.055602623
Ti      1.155471427      0.790918277      0.055607651
Ti      0.212753313      0.319547907      0.998315708
O       0.893950807      0.293183294      0.317103132
O       0.474271419      0.817280376      0.736818971
O       0.474270162      0.188807080      0.736807658
O       0.893965890      0.921664132      0.317132042
O       1.208209451      1.078793454      0.002903564
O       0.160015289      0.660153567      0.051038650
O       0.160014032      0.031677758      0.051038650
O       1.208198139      0.450316388      0.002875911
species
Ti  2.196
O  -1.098
buck
Ti Ti 31120.1 0.1540 5.25  15
O  O  11782.7 0.2340 30.22 15
Ti O  16957.5 0.1940 12.59 15
lennard 12 6
Ti Ti   1   0 15
O  O    1   0 15
Ti O    1   0 15
