opti conj conp
switch_minimiser bfgs gnorm 0.5
vectors
 8.923365147      5.538395492     -0.407642434
 2.249820555     11.357466126     -6.750137628
 2.530809394     -6.045756466      3.459327404
frac
Ti      0.088301776      0.393465208      0.414339221
Ti      0.479562883      0.067419937      0.023077071
Ti      0.479561839      0.328259284      0.023079158
Ti      0.088300211      0.132623775      0.414336613
O       0.371021458      0.121681520      0.131609106
O       0.196839549      0.339200495      0.305806143
O       0.196839027      0.078361670      0.305801448
O       0.371027718      0.382523476      0.131621104
O       0.501450000      0.447737747      0.001205083
O       0.066412050      0.273987268      0.436218513
O       0.066411528      0.013147399      0.436218513
O       0.501445305      0.186897356      0.001193606
species
Ti  2.196
O  -1.098
buck
Ti Ti 31120.1 0.1540 5.25  15
O  O  11782.7 0.2340 30.22 15
Ti O  16957.5 0.1940 12.59 15
lennard 12 6
Ti Ti   1   0 15
O  O    1   0 15
Ti O    1   0 15
