opti conj conp
switch_minimiser bfgs gnorm 0.5
vectors
 6.014097757      0.774072079     -2.603321251
-4.006829209      7.443952385     -5.027868252
 2.082088835     -3.708107251      5.276452173
frac
Ti      0.127695237      0.568999123      0.599185515
Ti      0.693506958      0.097497528      0.033372285
Ti      0.693505449      0.474703330      0.033375303
Ti      0.127692973      0.191790303      0.599181743
O       0.536542697      0.175966456      0.190322966
O       0.284654216      0.490525668      0.442233325
O       0.284653462      0.113320620      0.442226535
O       0.536551750      0.553176031      0.190340318
O       0.725158423      0.647483894      0.001742698
O       0.096039999      0.396219314      0.630825664
O       0.096039245      0.019012757      0.630825664
O       0.725151633      0.270276583      0.001726101
species
Ti  2.196
O  -1.098
buck
Ti Ti 31120.1 0.1540 5.25  15
O  O  11782.7 0.2340 30.22 15
Ti O  16957.5 0.1940 12.59 15
lennard 12 6
Ti Ti   1   0 15
O  O    1   0 15
Ti O    1   0 15
