opti conj conp
switch_minimiser bfgs gnorm 0.5
vectors
14.245990607     -0.611149438      3.532912120
-0.684906804     -0.133134012     -3.576011833
 2.798836128     -2.410971736     10.568305965
frac
Ti      0.436170345      0.346032957      0.032564338
Ti      0.098615756      0.446688394      0.238364683
Ti      0.134620775      0.145139427      0.334116321
Ti      0.400165327      0.044483386      0.539915460
O       0.014658325      0.598241781      0.359392809
O       0.056219696      0.415993664      0.557349850
O       0.520128380      0.194480174      0.514638368
O       0.218580016      0.296692210      0.213086989
O       0.357769869      0.075178117      0.255800882
O       0.177016835      0.114444093      0.015131757
O       0.316207292      0.496029141      0.057842032
O       0.478568215      0.376727688      0.316678916
species
Ti  2.196
O  -1.098
buck
Ti Ti 31120.1 0.1540 5.25  15
O  O  11782.7 0.2340 30.22 15
Ti O  16957.5 0.1940 12.59 15
lennard 12 6
Ti Ti   1   0 15
O  O    1   0 15
Ti O    1   0 15
