opti conj conp
switch_minimiser bfgs gnorm 0.5
vectors
 6.797466083      3.541759786      6.476135683
 3.130950897     14.959688169      0.426658503
 2.386603243      0.453699077      3.904586660
frac
Ti      0.154242402      0.078316983      0.322282043
Ti      0.424903886      0.078315901      0.322282584
Ti      0.424904428      0.348976844      0.051620017
Ti      0.154243484      0.348977927      0.051620017
O       0.260729291      0.348977385      0.215796236
O       0.154242402      0.184802790      0.051621641
O       0.424904428      0.242491037      0.322281502
O       0.318417538      0.078315901      0.158107448
O       0.154242943      0.513153063      0.051619476
O       0.531389693      0.078315901      0.486458262
O       0.047756595      0.348977385      0.428767308
O       0.424904428      0.455463733      0.322281502
species
Ti  2.196
O  -1.098
buck
Ti Ti 31120.1 0.1540 5.25  15
O  O  11782.7 0.2340 30.22 15
Ti O  16957.5 0.1940 12.59 15
lennard 12 6
Ti Ti   1   0 15
O  O    1   0 15
Ti O    1   0 15
