opti conj conp
switch_minimiser bfgs gnorm 0.5
vectors
 4.163100626      1.975001665     -1.652940100
 0.755905540      5.826046765      1.373415720
-1.298497498      2.529043781      7.366467454
frac
Ti      0.382177166      0.430319712      0.816422172
Ti      0.909062273      0.957203766      0.816421119
Ti      0.382179274      0.957203766      0.289537065
Ti      0.909063327      0.430318658      0.289538119
O       0.026483353      0.786014579      0.460727306
O       0.210991141      0.259132633      0.118352094
O       0.553365299      0.074623791      0.645232986
O       0.026479138      0.259130526      0.645237201
O       0.210989034      0.786016687      0.987611359
O       0.737873087      0.601508899      0.987611359
O       0.737876248      0.074622738      0.118347879
O       0.553368460      0.601508899      0.460727306
species
Ti  2.196
O  -1.098
buck
Ti Ti 31120.1 0.1540 5.25  15
O  O  11782.7 0.2340 30.22 15
Ti O  16957.5 0.1940 12.59 15
lennard 12 6
Ti Ti   1   0 15
O  O    1   0 15
Ti O    1   0 15
