opti conj conp
switch_minimiser bfgs gnorm 0.5
vectors
 4.455544170      0.321034609     -2.101430766
 0.151398651      7.323827094     -0.381649389
 0.503251188     -0.314561513      3.890860696
frac
Ti      0.032138448      0.512604656      0.525633038
Ti      0.032135489      0.019473007      0.525623176
Ti      0.547289148      0.266034887      0.032479691
Ti      0.600748551      0.869885726      0.806752811
O       0.224523563      0.096017956      0.032489554
O       0.224530466      0.589143687      0.032497444
O       0.835540863      0.262898607      0.525587671
O       0.730131293      0.016334755      0.032461939
O       0.354903047      0.342581808      0.525617258
O       0.730139183      0.509461473      0.032447145
O       0.354171877      0.746598376      0.067049420
O       0.930055942      0.951788979      0.477451338
species
Ti  2.196
O  -1.098
buck
Ti Ti 31120.1 0.1540 5.25  15
O  O  11782.7 0.2340 30.22 15
Ti O  16957.5 0.1940 12.59 15
lennard 12 6
Ti Ti   1   0 15
O  O    1   0 15
Ti O    1   0 15
