opti conj conp
switch_minimiser bfgs gnorm 0.5
vectors
 4.937003277     -0.764949349     -0.291392872
-1.685728442      6.027097439     -1.411913053
 0.154097884     -0.880905619      4.923749701
frac
Ti      0.362675704      0.408362263      0.774763353
Ti      0.123178812      0.929403923      0.014238212
Ti      0.541230041      0.807603112      0.432303810
Ti      0.977453274      0.923453797      0.937959732
O       0.180644080      0.504643817      0.481240627
O       0.432994478      0.190278941      0.374830879
O       0.470928509      0.025706551      0.832254485
O       0.074241995      0.190290436      0.914524395
O       0.262947518      0.711332096      0.084584766
O       0.895120140      0.716771265      0.334622298
O       0.753362279      0.019735350      0.644436048
O       0.645126716      0.402411179      0.586963116
species
Ti  2.196
O  -1.098
buck
Ti Ti 31120.1 0.1540 5.25  15
O  O  11782.7 0.2340 30.22 15
Ti O  16957.5 0.1940 12.59 15
lennard 12 6
Ti Ti   1   0 15
O  O    1   0 15
Ti O    1   0 15
