opti conj conp
switch_minimiser bfgs gnorm 0.5
vectors
 5.747854005     -0.706645336     -0.974252316
-0.369452930      4.287702960     -0.309516842
 0.420078307     -0.627770557      5.475757706
frac
Ti      0.285054245      0.092497724      0.736901512
Ti      0.736901512      0.092498628      0.285054245
Ti      0.603865906      0.647005572      0.530021411
Ti      0.437630392      0.479345836      0.775485631
O       0.623938792      0.092495917      0.849863329
O       0.849864233      0.092495917      0.623939695
O       0.398016965      0.092496820      0.172093331
O       0.172091524      0.092496820      0.398015158
O       0.373328911      0.745369107      0.120025141
O       0.827934255      0.476562457      0.280335129
O       0.187034994      0.732016117      0.578863389
O       0.791017429      0.676078329      0.092513968
species
Ti  2.196
O  -1.098
buck
Ti Ti 31120.1 0.1540 5.25  15
O  O  11782.7 0.2340 30.22 15
Ti O  16957.5 0.1940 12.59 15
lennard 12 6
Ti Ti   1   0 15
O  O    1   0 15
Ti O    1   0 15
