opti conj conp
switch_minimiser bfgs gnorm 0.5
vectors
 6.145343063      0.019419871      0.480398363
-0.017237505      7.024804568      0.029403669
 0.752333157     -0.011611835      3.163321641
frac
Ti      0.460577376      0.327445475      0.786856110
Ti      0.966796740      0.327447374      0.786856110
Ti      0.449468508      0.660170390      0.918311508
Ti      0.917964306      0.905371841      0.427925280
O       0.172711663      0.327446424      0.093925765
O       0.966794842      0.039581661      0.786858958
O       0.460577376      0.140732596      0.280637695
O       0.966795791      0.615313086      0.786855161
O       0.780081962      0.327446424      0.467350575
O       0.460577376      0.514160253      0.280637695
O       0.736117499      0.657054395      0.427891933
O       0.258133461      0.736296004      0.427921357
species
Ti  2.196
O  -1.098
buck
Ti Ti 31120.1 0.1540 5.25  15
O  O  11782.7 0.2340 30.22 15
Ti O  16957.5 0.1940 12.59 15
lennard 12 6
Ti Ti   1   0 15
O  O    1   0 15
Ti O    1   0 15
