opti conj conp
switch_minimiser bfgs gnorm 0.5
vectors
 5.537283826      0.025891915      1.383313640
 0.384978452      5.843138694     -0.999886517
-0.212875611     -0.763226162      4.233428012
frac
Ti      0.650459675      0.124010066      0.174764041
Ti      0.333351661      0.599686674      0.491869518
Ti      0.333349124      1.233902701      0.491874591
Ti      0.650455870      0.758226093      0.174757699
O       0.069439364      0.731620625      0.755758983
O       0.069454585      0.097405866      0.755788157
O       0.386568941      0.255970654      0.438689023
O       0.597236053      1.101943381      0.227962294
O       0.597234785      0.467726085      0.227962294
O       0.386557525      0.890189218      0.438661117
O       1.056283840      0.470903622      0.651837542
O       0.884547007      1.125580998      0.782659205
species
Ti  2.196
O  -1.098
buck
Ti Ti 31120.1 0.1540 5.25  15
O  O  11782.7 0.2340 30.22 15
Ti O  16957.5 0.1940 12.59 15
lennard 12 6
Ti Ti   1   0 15
O  O    1   0 15
Ti O    1   0 15
