opti conj conp
switch_minimiser bfgs gnorm 0.5
vectors
 5.283963933      0.302975444     -0.039207935
 0.284684875      6.317650991     -0.755360075
 0.006594159     -0.586039519      4.095305547
frac
Ti      0.029465296      0.266819300      0.170734172
Ti      0.029463035      0.832023672      0.170738694
Ti      0.770195572      0.616759511      0.109783303
Ti      0.186757428      0.248514078      0.109782210
O       0.924683647      0.384396975      0.405908739
O       0.924697212      0.949606999      0.405934739
O       0.076891784      1.090917701      0.123340465
O       0.076881611      0.525711067      0.123315596
O       0.186757428      0.948535360      0.109782210
O       0.186756334      0.616757323      0.109784397
O       1.101973608      0.616757323      0.778006361
O       0.985392658      0.033318086      0.894588405
species
Ti  2.196
O  -1.098
buck
Ti Ti 31120.1 0.1540 5.25  15
O  O  11782.7 0.2340 30.22 15
Ti O  16957.5 0.1940 12.59 15
lennard 12 6
Ti Ti   1   0 15
O  O    1   0 15
Ti O    1   0 15
