opti conj conp
switch_minimiser bfgs gnorm 0.5
vectors
 3.887602305      0.672064426     -3.179302918
 0.095873616      7.050545757     -1.279331591
-0.194060974     -0.941349684      5.214900315
frac
Ti      0.125618430      0.338998624      0.252618521
Ti      0.125616397      0.847114841      0.252622586
Ti      0.132381838      0.288828428      0.560008813
Ti      0.082647538      0.553947904      0.458679886
O       0.168254632      0.063622922      0.210011790
O       0.337035255      0.741392710      0.041183404
O       0.337034239      0.233275476      0.041183404
O       0.168245486      0.571741172      0.209989433
O       0.702758489      0.456102102      0.643650517
O       0.446310804      0.775571163      0.751787987
O       0.812751419      0.067212957      0.702056608
O       0.024244368      0.985604628      0.000346089
species
Ti  2.196
O  -1.098
buck
Ti Ti 31120.1 0.1540 5.25  15
O  O  11782.7 0.2340 30.22 15
Ti O  16957.5 0.1940 12.59 15
lennard 12 6
Ti Ti   1   0 15
O  O    1   0 15
Ti O    1   0 15
