opti conj conp
switch_minimiser bfgs gnorm 0.5
vectors
 5.457696706      0.115075737      0.925983167
 0.352835480      5.997899469     -0.921539984
-0.142317465     -0.706468927      4.190458541
frac
Ti      0.369010213      1.082702490      0.131520993
Ti      0.063994921      0.320173409      0.216467795
Ti      0.063992480      0.930203994      0.216472675
Ti      0.369006553      0.472667025      0.131514893
O       0.622849835      0.955792439      0.877692351
O       0.622848615      0.345763075      0.877681371
O       0.115182792      1.209630841      0.165315306
O       0.317816242      0.803276863      0.182690563
O       0.317815022      0.193245058      0.182690563
O       0.115171811      0.599597816      0.165288464
O       0.836799813      0.671194779      0.203320160
O       1.194891080      0.671192417      0.845230074
species
Ti  2.196
O  -1.098
buck
Ti Ti 31120.1 0.1540 5.25  15
O  O  11782.7 0.2340 30.22 15
Ti O  16957.5 0.1940 12.59 15
lennard 12 6
Ti Ti   1   0 15
O  O    1   0 15
Ti O    1   0 15
