opti conj conp
switch_minimiser bfgs gnorm 0.5
vectors
 4.915795249      0.998456839     -2.202449953
 1.406896010      5.222454883     -0.549900815
-0.155979687     -0.552514792      5.584143518
frac
Ti      0.113361362      0.113361362      0.267947836
Ti      0.613965228      0.113361362      0.508949550
Ti      0.613965228      0.613965228      0.008345684
Ti      0.783751395      0.680667047      0.824891020
O       0.282931911      0.706413746      0.508949550
O       0.944998545      0.521516709      0.508949550
O       0.946195989      0.483864290      0.008345684
O       0.281734466      0.744066165      0.008345684
O       0.779375758      0.210720804      0.264181292
O       0.448554697      0.016001920      0.264181292
O       0.950034978      0.847810668      0.658559379
O       0.783742384      0.180063181      0.824868994
species
Ti  2.196
O  -1.098
buck
Ti Ti 31120.1 0.1540 5.25  15
O  O  11782.7 0.2340 30.22 15
Ti O  16957.5 0.1940 12.59 15
lennard 12 6
Ti Ti   1   0 15
O  O    1   0 15
Ti O    1   0 15
