opti conj conp
switch_minimiser bfgs gnorm 0.5
vectors
 4.352537848      0.048336066     -2.222466000
-0.509074317      6.316878884     -1.225582157
 0.226751300     -0.840106540      4.952453348
frac
Ti      0.041917110      0.634377262      0.674903156
Ti      0.041914071      0.127966143      0.674898092
Ti      0.935628356      0.606148472      0.322467213
Ti      0.545546496      0.374560504      0.413195466
O       0.252637985      0.529024927      0.464191396
O       0.252636972      0.022618872      0.464182281
O       0.484097803      0.681872836      0.389351700
O       0.550227741      0.148198677      0.989370515
O       0.759017172      0.163164079      0.475126260
O       0.926365121      0.343477113      0.903699263
O       0.698473939      0.564092209      0.841607431
O       0.831083237      0.877835938      0.196917258
species
Ti  2.196
O  -1.098
buck
Ti Ti 31120.1 0.1540 5.25  15
O  O  11782.7 0.2340 30.22 15
Ti O  16957.5 0.1940 12.59 15
lennard 12 6
Ti Ti   1   0 15
O  O    1   0 15
Ti O    1   0 15
