opti conj conp
switch_minimiser bfgs gnorm 0.5
vectors
 6.809548069     -0.018715472     -1.500866657
 0.027827399      4.675039768      0.000538236
 1.034763896     -0.011006051      3.981847580
frac
Ti      0.052276311      0.462546142      0.473671070
Ti      0.052273784      0.041461298      0.473662649
Ti      0.492163210      0.252000351      0.052567698
Ti      0.727565364      0.510324405      0.211045311
O       0.216553854      0.106822987      0.052576120
O       0.738301192      0.249322284      0.473632331
O       0.648292018      0.038781546      0.052552539
O       0.327884825      0.317363725      0.473657596
O       0.648298755      0.459862180      0.052539907
O       0.198964532      0.510278928      0.028518170
O       0.428004147      0.510360617      0.834016020
O       0.310564993      0.510319352      0.310564993
species
Ti  2.196
O  -1.098
buck
Ti Ti 31120.1 0.1540 5.25  15
O  O  11782.7 0.2340 30.22 15
Ti O  16957.5 0.1940 12.59 15
lennard 12 6
Ti Ti   1   0 15
O  O    1   0 15
Ti O    1   0 15
