opti conj conp
switch_minimiser bfgs gnorm 0.5
vectors
 4.708069460      0.488627997      0.409430813
 0.545462617      6.169141255      1.113426121
 1.028137482      1.808695252      5.043391042
frac
Ti      0.000000000      0.838622259      1.000000000
Ti      0.532845609      0.305771322      0.000000000
Ti      1.065691219      0.305772387      0.532845609
Ti      0.532845609      0.838614799      0.532845609
O       0.399634207      0.838613734      0.133213534
O       0.666057012      0.838613734      0.932477685
O       0.932478751      0.305769190      0.133211402
O       0.133212468      0.305769190      0.932479816
O       0.666058077      0.305770256      0.399635273
O       0.399633141      0.305770256      0.666055946
O       0.133211402      0.838616931      0.399633141
O       0.932479816      0.838616931      0.666058077
species
Ti  2.196
O  -1.098
buck
Ti Ti 31120.1 0.1540 5.25  15
O  O  11782.7 0.2340 30.22 15
Ti O  16957.5 0.1940 12.59 15
lennard 12 6
Ti Ti   1   0 15
O  O    1   0 15
Ti O    1   0 15
