opti conj conp
switch_minimiser bfgs gnorm 0.5
vectors
 7.006043584     -0.043076500      6.135695791
-0.057935919      4.255756882     -0.023594635
 1.730285361     -0.041731263      6.010575186
frac
Ti      0.287261030      0.145857540      0.600218038
Ti      0.791340947      0.145855524      0.600219046
Ti      0.791341955      0.649934432      0.096137114
Ti      0.287263046      0.649936448      0.096137114
O       0.485582200      0.649935440      0.401898885
O       0.287261030      0.344176694      0.096140138
O       0.791341955      0.451615279      0.600217030
O       0.593020785      0.145855524      0.294459291
O       0.287262038      0.955696203      0.096136105
O       0.989660100      0.145855524      0.905979809
O       0.088941877      0.649935440      0.798536183
O       0.791341955      0.848255602      0.600217030
species
Ti  2.196
O  -1.098
buck
Ti Ti 31120.1 0.1540 5.25  15
O  O  11782.7 0.2340 30.22 15
Ti O  16957.5 0.1940 12.59 15
lennard 12 6
Ti Ti   1   0 15
O  O    1   0 15
Ti O    1   0 15
