opti conj conp
switch_minimiser bfgs gnorm 0.5
vectors
10.339072643      0.734249700      4.374544906
-0.435335506      9.215790373      1.043847621
 1.616395446      1.078927543      2.213854244
frac
Ti      0.197224300      0.067882592      0.483486445
Ti      0.643454962      0.774622916      0.502257535
Ti      0.605570594      0.328636808      0.075213610
Ti      0.159340862      0.551762367      0.056424853
O       0.328160720      0.467339420      0.352560254
O       0.191697211      0.258740139      0.024110348
O       0.611096753      0.137776471      0.534614813
O       0.474637894      0.859044004      0.206129573
O       0.191713948      0.812405000      0.024087101
O       0.866335968      0.663188457      0.744393158
O       0.611100473      0.513968195      0.534609234
O       0.866329459      0.198256445      0.744301102
species
Ti  2.196
O  -1.098
buck
Ti Ti 31120.1 0.1540 5.25  15
O  O  11782.7 0.2340 30.22 15
Ti O  16957.5 0.1940 12.59 15
lennard 12 6
Ti Ti   1   0 15
O  O    1   0 15
Ti O    1   0 15
