opti conj conp
switch_minimiser bfgs gnorm 0.5
vectors
 2.375150893      0.123411309     -4.085804957
 0.395925691      8.850355649      0.788465772
 0.179387697      0.442483180      6.154139347
frac
Ti      0.210512709      0.938026741      0.987790690
Ti      1.143284841      0.160730105      0.055016071
Ti      1.143282353      0.782574876      0.055021045
Ti      0.210508978      0.316176995      0.987784471
O       0.884520516      0.290090503      0.313758009
O       0.469268328      0.808658881      0.729046264
O       0.469267084      0.186815353      0.729035071
O       0.884535440      0.911941492      0.313786614
O       1.195464044      1.067413257      0.002872934
O       0.158327287      0.653189604      0.039951238
O       0.158326043      0.031343589      0.039951238
O       1.195452851      0.445565998      0.002845573
species
Ti  2.196
O  -1.098
buck
Ti Ti 31120.1 0.1540 5.25  15
O  O  11782.7 0.2340 30.22 15
Ti O  16957.5 0.1940 12.59 15
lennard 12 6
Ti Ti   1   0 15
O  O    1   0 15
Ti O    1   0 15
