opti conj conp
switch_minimiser bfgs gnorm 0.5
vectors
-0.530776932     -5.465160889    -13.127961656
-2.371750243      6.884954105      5.695416066
 4.727248446      6.987154906     23.156879172
frac
Ti      0.046779502      0.208445487      0.219503882
Ti      0.254057326      0.035716961      0.012225506
Ti      0.254056773      0.173901440      0.012226612
Ti      0.046778673      0.070259903      0.219502500
O       0.196555494      0.064463041      0.069722363
O       0.104279399      0.179697749      0.162006472
O       0.104279123      0.041513547      0.162003985
O       0.196558810      0.202648901      0.069728720
O       0.265652432      0.237197370      0.000638415
O       0.035183014      0.145149833      0.231094843
O       0.035182738      0.006965078      0.231094843
O       0.265649944      0.099012339      0.000632335
species
Ti  2.196
O  -1.098
buck
Ti Ti 31120.1 0.1540 5.25  15
O  O  11782.7 0.2340 30.22 15
Ti O  16957.5 0.1940 12.59 15
lennard 12 6
Ti Ti   1   0 15
O  O    1   0 15
Ti O    1   0 15
