opti conj conp
switch_minimiser bfgs gnorm 0.5
vectors
 6.108311896     -0.000000000     -1.404384954
 0.000000000      3.618656548      0.000000000
-0.712022059     -0.000000000      6.227111256
frac
Ti      0.586972747      0.269464200      0.352184024
Ti      0.469577446      0.269465139      0.939154892
Ti      0.939154892      0.269466078      0.469577446
Ti      0.586971808      0.739039768      0.821758652
O       0.352183085      0.739039768      0.117396240
O       0.352182145      0.269464200      0.586970868
O       0.821759592      0.269463261      0.117394362
O       0.117395301      0.269463261      0.821760531
O      -0.000000000      0.739047281     -0.000000000
O       0.469577446      0.739040707      0.469577446
O       0.117394362      0.739042585      0.352182145
O       0.821760531      0.739042585      0.586972747
species
Ti  2.196
O  -1.098
buck
Ti Ti 31120.1 0.1540 5.25  15
O  O  11782.7 0.2340 30.22 15
Ti O  16957.5 0.1940 12.59 15
lennard 12 6
Ti Ti   1   0 15
O  O    1   0 15
Ti O    1   0 15
